46
Properties=species:S:1:pos:R:3:atom_id:I:1:component_id:I:1:is_core:I:1 pbc="F F F" timestep=966000 core=8801 R_A=5 units=angstrom GEOMETRY_ONLY
N 1362.470000000000 59.602800000000 76.113100000000 335 168 0
N 1361.610000000000 60.008700000000 76.690500000000 336 168 0
N 1356.540000000000 65.096000000000 82.386600000000 4197 2099 0
N 1355.650000000000 65.722100000000 82.654200000000 4198 2099 0
N 1352.210000000000 63.787900000000 73.406400000000 5303 2652 0
N 1351.790000000000 64.730000000000 72.973900000000 5304 2652 0
N 1363.570000000000 66.574400000000 69.088300000000 8385 4193 0
N 1364.100000000000 65.893700000000 68.376100000000 8386 4193 0
C 1360.250000000000 63.604600000000 71.943900000000 17601 8801 1
C 1359.320000000000 62.486700000000 72.428600000000 17602 8801 1
H 1361.260000000000 63.299700000000 71.675200000000 17603 8801 1
H 1359.510000000000 64.203800000000 71.312400000000 17604 8801 1
H 1360.180000000000 64.355300000000 72.666400000000 17605 8801 1
C 1357.970000000000 62.546700000000 73.307500000000 17606 8801 1
H 1359.200000000000 61.807800000000 71.567000000000 17607 8801 1
H 1360.050000000000 62.015800000000 73.077500000000 17608 8801 1
C 1357.360000000000 63.934100000000 73.705500000000 17609 8801 1
H 1357.260000000000 61.797300000000 72.860500000000 17610 8801 1
H 1357.880000000000 61.815400000000 74.117200000000 17611 8801 1
C 1358.250000000000 64.854800000000 74.632000000000 17612 8801 1
H 1357.260000000000 64.399000000000 72.872900000000 17613 8801 1
H 1356.320000000000 63.823300000000 74.095600000000 17614 8801 1
C 1358.380000000000 66.067000000000 73.735900000000 17615 8801 1
H 1358.110000000000 64.429800000000 75.616100000000 17616 8801 1
H 1359.340000000000 64.344200000000 75.097400000000 17617 8801 1
C 1359.140000000000 67.388300000000 74.453200000000 17618 8801 1
H 1358.940000000000 65.995200000000 72.730900000000 17619 8801 1
H 1357.460000000000 66.424000000000 73.412600000000 17620 8801 1
C 1358.550000000000 68.069100000000 75.771300000000 17621 8801 1
H 1360.250000000000 67.501300000000 74.314100000000 17622 8801 1
H 1358.780000000000 68.224100000000 73.815500000000 17623 8801 1
C 1357.800000000000 69.417200000000 75.863600000000 17624 8801 1
H 1357.800000000000 67.382700000000 76.270600000000 17625 8801 1
H 1359.270000000000 68.190000000000 76.567700000000 17626 8801 1
C 1356.340000000000 69.179300000000 76.723200000000 17627 8801 1
H 1358.260000000000 70.342000000000 76.195200000000 17628 8801 1
H 1357.070000000000 69.485100000000 75.002600000000 17629 8801 1
C 1356.440000000000 69.736400000000 78.065100000000 17630 8801 1
H 1355.540000000000 69.841300000000 76.167400000000 17631 8801 1
H 1355.760000000000 68.299900000000 76.586500000000 17632 8801 1
C 1356.910000000000 69.065000000000 79.276600000000 17633 8801 1
H 1356.870000000000 70.664200000000 78.287000000000 17634 8801 1
H 1355.370000000000 69.742000000000 78.280200000000 17635 8801 1
H 1356.010000000000 68.659200000000 80.014900000000 17636 8801 1
H 1357.510000000000 68.035000000000 78.886500000000 17637 8801 1
H 1357.470000000000 69.851100000000 79.971100000000 17638 8801 1
