44
Properties=species:S:1:pos:R:3:atom_id:I:1:component_id:I:1:is_core:I:1 pbc="F F F" timestep=966000 core=8803 R_A=5 units=angstrom GEOMETRY_ONLY
N 1388.390000000000 26.244500000000 -1.982000000000 1291 646 0
N 1387.320000000000 25.893500000000 -2.082000000000 1292 646 0
N 1381.270000000000 30.467600000000 3.257110000000 3209 1605 0
N 1381.040000000000 31.342300000000 2.556510000000 3210 1605 0
N 1391.630000000000 33.423200000000 -1.493000000000 3947 1974 0
N 1391.410000000000 34.310900000000 -0.864000000000 3948 1974 0
C 1387.000000000000 24.014400000000 2.369120000000 17677 8803 1
C 1386.890000000000 25.080300000000 1.222380000000 17678 8803 1
H 1386.250000000000 23.259700000000 2.343800000000 17679 8803 1
H 1388.100000000000 23.672700000000 2.492340000000 17680 8803 1
H 1386.940000000000 24.551100000000 3.280180000000 17681 8803 1
C 1387.470000000000 26.468800000000 1.430060000000 17682 8803 1
H 1387.270000000000 24.657400000000 0.230153000000 17683 8803 1
H 1385.780000000000 25.098300000000 1.247850000000 17684 8803 1
C 1386.330000000000 27.342600000000 1.124870000000 17685 8803 1
H 1387.750000000000 26.464200000000 2.399820000000 17686 8803 1
H 1388.540000000000 26.646000000000 0.790525000000 17687 8803 1
C 1385.380000000000 28.253000000000 1.924300000000 17688 8803 1
H 1386.940000000000 28.322500000000 0.671780000000 17689 8803 1
H 1385.900000000000 27.243500000000 0.157743000000 17690 8803 1
C 1385.440000000000 29.469400000000 1.112770000000 17691 8803 1
H 1384.270000000000 27.918300000000 2.003910000000 17692 8803 1
H 1385.520000000000 28.500300000000 3.147340000000 17693 8803 1
C 1385.060000000000 30.700500000000 1.998520000000 17694 8803 1
H 1386.140000000000 29.911400000000 0.568474000000 17695 8803 1
H 1384.740000000000 29.396500000000 0.403094000000 17696 8803 1
C 1384.600000000000 31.946400000000 1.111620000000 17697 8803 1
H 1384.250000000000 30.229000000000 2.588550000000 17698 8803 1
H 1385.820000000000 30.951000000000 2.780430000000 17699 8803 1
C 1384.860000000000 32.134200000000 -0.452000000000 17700 8803 1
H 1383.690000000000 32.159400000000 1.394870000000 17701 8803 1
H 1385.020000000000 32.654000000000 1.828970000000 17702 8803 1
C 1384.230000000000 33.416600000000 -1.172000000000 17703 8803 1
H 1385.940000000000 31.931000000000 -0.760000000000 17704 8803 1
H 1384.660000000000 31.174000000000 -0.889000000000 17705 8803 1
C 1384.640000000000 34.075000000000 -2.604000000000 17706 8803 1
H 1383.190000000000 33.259300000000 -1.005000000000 17707 8803 1
H 1384.400000000000 34.244600000000 -0.590000000000 17708 8803 1
C 1386.100000000000 33.763300000000 -2.484000000000 17709 8803 1
H 1384.260000000000 33.645400000000 -3.565000000000 17710 8803 1
H 1384.360000000000 35.000400000000 -2.362000000000 17711 8803 1
H 1386.200000000000 32.991300000000 -3.135000000000 17712 8803 1
H 1386.860000000000 34.625000000000 -2.483000000000 17713 8803 1
H 1386.160000000000 33.427600000000 -1.370000000000 17714 8803 1
