54
timestep=966000 core=8806,8807 R_A=5 units=angstrom GEOMETRY_ONLY
N 1342.180000000000 24.924700000000 84.081300000000
N 1342.180000000000 26.002100000000 84.380100000000
N 1342.180000000000 22.014200000000 87.049800000000
N 1342.180000000000 23.044900000000 86.677400000000
N 1342.180000000000 30.899100000000 83.587000000000
N 1342.180000000000 30.571800000000 82.508500000000
N 1342.180000000000 26.246900000000 80.447900000000
N 1342.180000000000 26.901200000000 79.550900000000
N 1342.180000000000 29.756700000000 79.274300000000
N 1342.180000000000 30.816200000000 79.113100000000
N 1342.180000000000 21.400200000000 83.220300000000
N 1342.180000000000 22.124900000000 82.399100000000
N 1351.740000000000 22.172400000000 83.316000000000
N 1352.670000000000 22.087000000000 83.958900000000
N 1353.850000000000 28.531800000000 85.671200000000
N 1352.950000000000 29.054100000000 86.093000000000
C 1346.610000000000 30.785300000000 81.469900000000
C 1347.760000000000 30.072600000000 82.214400000000
H 1346.170000000000 29.859900000000 80.948500000000
H 1345.700000000000 30.959400000000 82.093800000000
H 1346.830000000000 31.786800000000 81.098400000000
C 1348.140000000000 30.333600000000 83.585500000000
H 1347.630000000000 29.039400000000 82.007000000000
H 1348.680000000000 30.000300000000 81.465200000000
C 1349.830000000000 30.210300000000 83.646000000000
H 1348.080000000000 31.203100000000 84.147200000000
H 1347.780000000000 29.556400000000 83.988800000000
C 1350.400000000000 28.999600000000 84.381400000000
H 1350.250000000000 30.399600000000 82.509700000000
H 1350.520000000000 31.091100000000 83.946400000000
C 1351.320000000000 27.401400000000 80.628300000000
H 1350.240000000000 28.041400000000 84.100200000000
H 1350.840000000000 29.242200000000 85.389100000000
C 1351.880000000000 26.179800000000 81.262800000000
H 1351.730000000000 28.385100000000 80.827500000000
H 1350.250000000000 27.603100000000 80.298400000000
C 1350.740000000000 25.208100000000 82.136800000000
H 1352.670000000000 25.828500000000 80.413900000000
H 1352.720000000000 26.475200000000 81.961700000000
C 1349.730000000000 24.361300000000 81.444400000000
H 1351.350000000000 25.111000000000 82.971200000000
H 1350.210000000000 26.105500000000 82.371300000000
C 1348.910000000000 23.717600000000 82.911600000000
H 1349.290000000000 25.145800000000 80.884800000000
H 1350.480000000000 23.912100000000 80.715700000000
C 1347.680000000000 23.161400000000 83.463100000000
H 1349.410000000000 22.838800000000 83.242800000000
H 1349.370000000000 24.530300000000 83.532400000000
C 1346.470000000000 23.035400000000 82.553500000000
H 1347.940000000000 22.067000000000 83.638800000000
H 1347.500000000000 24.097600000000 84.218100000000
H 1346.660000000000 22.112200000000 82.139800000000
H 1345.480000000000 23.203900000000 83.286900000000
H 1346.140000000000 23.574000000000 81.602400000000
