21400
Lattice="3240 0 0 0 150 0 0 0 150" Origin="0 0 0" Properties=species:S:1:pos:R:3:id:I:1:component:I:1 pbc="F T T" timestep=966000 length_unit=angstrom
N 1595.39 15.73 52.9877 1 1
N 1594.83 16.378 52.2547 2 1
N 1453.8 124.476 51.9247 3 2
N 1454.15 125.553 51.7527 4 2
N 1342.18 18.5548 90.3429 5 3
N 1342.18 18.7379 91.42189999999999 6 3
N 1342.18 98.119 103.244 7 4
N 1342.18 97.4432 104.161 8 4
N 1342.18 20.0741 19.3965 9 5
N 1342.18 20.6164 18.4251 10 5
N 1342.18 64.544 92.97709999999999 11 6
N 1342.18 64.5069 91.8668 12 6
N 1342.18 42.7506 133.793 13 7
N 1342.18 43.5353 132.958 14 7
N 1342.18 137.148 90.9485 15 8
N 1342.18 136.117 90.48009999999999 16 8
N 1342.18 128.37 93.6358 17 9
N 1342.18 129.472 93.50539999999999 18 9
N 1342.18 50.0083 29.0499 19 10
N 1342.18 51.1112 28.8555 20 10
N 1342.18 20.8283 59.4937 21 11
N 1342.18 20.6757 60.5999 22 11
N 1342.18 69.28189999999999 5.43857 23 12
N 1342.18 68.1824 5.26693 24 12
N 1353.22 1.89805 51.1805 25 13
N 1353.65 2.82633 50.7697 26 13
N 1342.18 140.609 99.76390000000001 27 14
N 1342.18 141.04 98.7311 28 14
N 1342.18 122.601 31.9694 29 15
N 1342.18 122.304 33.0176 30 15
N 1342.18 137.167 48.4563 31 16
N 1342.18 137.653 49.4133 32 16
N 1342.18 76.2039 27.3759 33 17
N 1342.18 75.1384 27.095 34 17
N 1342.18 125.594 57.7835 35 18
N 1342.18 125.195 56.7363 36 18
N 1342.18 74.2067 70.4744 37 19
N 1342.18 75.14279999999999 70.9903 38 19
N 1433.09 119.107 51.3582 39 20
N 1433 118.399 52.2316 40 20
N 1342.18 13.3859 55.8005 41 21
N 1342.18 13.896 54.8018 42 21
N 1342.18 10.1321 119.09 43 22
N 1342.18 9.126200000000001 118.644 44 22
N 1402.59 30.5437 83.29600000000001 45 23
N 1402.44 31.0288 82.30929999999999 46 23
N 1342.18 20.9631 138.019 47 24
N 1342.18 22.0837 137.867 48 24
N 1342.18 49.8559 90.6589 49 25
N 1342.18 48.7938 90.6682 50 25
N 1342.18 9.007999999999999 109.615 51 26
N 1342.18 8.966670000000001 110.71 52 26
N 1342.18 130.877 61.1066 53 27
N 1342.18 131.607 61.9543 54 27
N 1342.18 39.4359 134.332 55 28
N 1342.18 39.6751 133.269 56 28
N 1342.18 4.75117 43.5889 57 29
N 1342.18 4.23465 42.6119 58 29
N 1342.18 18.9316 68.3369 59 30
N 1342.18 19.9803 67.958 60 30
N 1342.18 135.56 33.8136 61 31
N 1342.18 136.102 34.8171 62 31
N 1342.18 5.27143 80.8295 63 32
N 1342.18 6.27586 81.39570000000001 64 32
N 1342.18 18.4839 15.6738 65 33
N 1342.18 17.5212 16.2936 66 33
N 1367.71 82.0997 112.096 67 34
N 1367.73 81.03279999999999 112.311 68 34
N 1342.18 13.6334 75.3952 69 35
N 1342.18 13.5861 74.28570000000001 70 35
N 1342.18 30.6929 41.6771 71 36
N 1342.18 29.6328 41.2155 72 36
N 1342.18 49.5382 136.873 73 37
N 1342.18 50.5967 136.556 74 37
N 1415.32 66.7478 142.835 75 38
N 1416.1 67.54770000000001 142.741 76 38
N 1342.18 37.0601 25.6723 77 39
N 1342.18 37.2979 24.5802 78 39
N 1342.18 21.0488 120.463 79 40
N 1342.18 20.2948 121.313 80 40
N 1342.18 82.1923 54.8554 81 41
N 1342.18 81.3051 55.5036 82 41
N 1368.09 143.675 12.3334 83 42
N 1368.78 142.936 11.8575 84 42
N 1342.18 43.0747 52.7691 85 43
N 1342.18 42.0311 52.3473 86 43
N 1342.18 145.112 133.607 87 44
N 1342.18 144 133.423 88 44
N 1342.18 87.4748 30.6236 89 45
N 1342.18 86.57599999999999 30.005 90 45
N 1342.18 1.16822 35.6182 91 46
N 1342.18 2.21014 35.969 92 46
N 1342.18 80.81319999999999 122.794 93 47
N 1342.18 81.3747 121.803 94 47
N 1342.18 42.7029 10.6128 95 48
N 1342.18 42.6174 9.50159 96 48
N 1342.18 120.046 101.798 97 49
N 1342.18 119.185 101.09 98 49
N 1342.18 67.934 131.575 99 50
N 1342.18 67.7184 130.477 100 50
N 1524.59 106.134 25.836 101 51
N 1524.49 105.052 26.0968 102 51
N 1342.18 73.8471 3.93223 103 52
N 1342.18 73.4325 4.94253 104 52
N 1342.18 11.2717 60.2424 105 53
N 1342.18 12.0309 59.4193 106 53
N 1479.96 108.246 61.8818 107 54
N 1479.17 108.592 62.5926 108 54
N 1342.18 56.0044 13.5175 109 55
N 1342.18 55.7704 12.4237 110 55
N 1342.18 75.1519 147.05 111 56
N 1342.18 75.1016 146.001 112 56
N 1342.18 15.8442 82.3032 113 57
N 1342.18 16.9529 82.4306 114 57
N 1481.06 148.98 50.8688 115 58
N 1481.06 149.667 49.9683 116 58
N 1342.18 26.2969 96.8253 117 59
N 1342.18 27.2652 97.3788 118 59
N 1342.18 18.0929 128.062 119 60
N 1342.18 18.4129 126.969 120 60
N 1342.18 87.62730000000001 126.759 121 61
N 1342.18 88.3552 127.568 122 61
N 1342.18 148.335 109.223 123 62
N 1342.18 149.461 109.121 124 62
N 1342.18 33.7632 140.517 125 63
N 1342.18 33.4373 141.55 126 63
N 1342.18 59.1413 146.786 127 64
N 1342.18 58.9622 145.68 128 64
N 1442.96 103.19 35.7657 129 65
N 1442.81 102.261 36.3407 130 65
N 1342.18 11.2947 53.0764 131 66
N 1342.18 11.9943 52.2088 132 66
N 1545.71 70.8669 52.9178 133 67
N 1544.88 71.613 52.7369 134 67
N 1418.48 44.0676 132.287 135 68
N 1417.81 43.191 132.256 136 68
N 1342.18 27.2873 7.15577 137 69
N 1342.18 26.3789 6.49301 138 69
N 1342.18 98.2201 84.7319 139 70
N 1342.18 99.0561 84.0163 140 70
N 1460.88 71.5979 50.2913 141 71
N 1459.86 71.8771 50.6172 142 71
N 1342.18 3.3443 98.9644 143 72
N 1342.18 3.90357 98.0012 144 72
N 1342.18 139.728 54.6519 145 73
N 1342.18 140.85 54.4454 146 73
N 1421.41 118.283 83.2617 147 74
N 1421.11 119.019 82.4787 148 74
N 1342.18 62.1647 129.739 149 75
N 1342.18 61.081 130.036 150 75
N 1342.18 71.63809999999999 27.3357 151 76
N 1342.18 70.9212 28.1415 152 76
N 1342.18 89.5722 43.6036 153 77
N 1342.18 90.3145 42.7566 154 77
N 1478.37 41.5255 90.48820000000001 155 78
N 1479.11 41.7347 91.3075 156 78
N 1342.18 83.89360000000001 119.676 157 79
N 1342.18 84.74339999999999 120.378 158 79
N 1342.18 6.67611 105.644 159 80
N 1342.18 5.5335 105.653 160 80
N 1342.18 0.582442 141.162 161 81
N 1342.18 149.534 140.763 162 81
N 1342.18 30.5549 5.83461 163 82
N 1342.18 31.661 5.83843 164 82
N 1342.18 96.6139 46.0064 165 83
N 1342.18 96.6129 47.0941 166 83
N 1342.18 144.42 16.8167 167 84
N 1342.18 143.341 17.1821 168 84
N 1342.18 111.673 82.3588 169 85
N 1342.18 110.859 81.6262 170 85
N 1342.18 93.971 59.9901 171 86
N 1342.18 94.9092 60.52 172 86
N 1380.16 36.0652 110.668 173 87
N 1380.53 35.8997 111.704 174 87
N 1433.53 146.281 144.623 175 88
N 1433.77 145.208 144.668 176 88
N 1342.18 3.80184 56.1941 177 89
N 1342.18 2.70371 55.984 178 89
N 1342.18 18.4892 105.513 179 90
N 1342.18 17.579 104.832 180 90
N 1342.18 21.695 41.574 181 91
N 1342.18 22.8234 41.734 182 91
N 1413.39 26.6807 98.2706 183 92
N 1414.28 27.2591 97.9397 184 92
N 1342.18 113.149 95.55759999999999 185 93
N 1342.18 113.557 94.52679999999999 186 93
N 1503.62 8.91498 90.2428 187 94
N 1503.89 7.83904 90.0133 188 94
N 1384.02 36.673 27.7224 189 95
N 1383.27 36.1897 27.032 190 95
N 1342.18 130.229 101.925 191 96
N 1342.18 129.086 101.833 192 96
N 1342.18 78.46550000000001 21.8634 193 97
N 1342.18 79.398 21.2424 194 97
N 1414.94 38.2611 30.4443 195 98
N 1415.3 37.5259 29.6929 196 98
N 1342.18 147.22 118.68 197 99
N 1342.18 146.487 119.509 198 99
N 1342.18 33.3208 127.009 199 100
N 1342.18 33.8736 126.045 200 100
N 1342.18 101.333 139.322 201 101
N 1342.18 101.788 140.341 202 101
N 1342.18 94.0292 124.872 203 102
N 1342.18 92.9383 125.066 204 102
N 1360.05 47.4177 145.656 205 103
N 1360.8 47.839 144.975 206 103
N 1342.18 27.7942 14.6221 207 104
N 1342.18 26.693 14.4997 208 104
N 1342.18 54.3054 36.5866 209 105
N 1342.18 53.1808 36.4997 210 105
N 1342.18 114.966 22.0851 211 106
N 1342.18 114.165 22.8587 212 106
N 1537.91 114.23 130.778 213 107
N 1538.29 113.76 131.717 214 107
N 1342.18 10.6029 22.7033 215 108
N 1342.18 11.4239 21.9365 216 108
N 1342.18 81.01009999999999 6.59095 217 109
N 1342.18 80.1862 7.36572 218 109
N 1342.18 65.6345 33.154 219 110
N 1342.18 66.1962 32.2535 220 110
N 1342.18 130.282 98.7148 221 111
N 1342.18 129.159 98.4646 222 111
N 1342.18 116.475 64.2062 223 112
N 1342.18 115.402 63.8369 224 112
N 1342.18 105.823 63.7299 225 113
N 1342.18 105.04 64.517 226 113
N 1342.18 124.676 91.6848 227 114
N 1342.18 125.667 91.1397 228 114
N 1342.18 53.1262 140.666 229 115
N 1342.18 52.0447 140.501 230 115
N 1389.26 9.262499999999999 61.7397 231 116
N 1389.37 8.14842 61.6956 232 116
N 1342.18 78.8218 71.6134 233 117
N 1342.18 79.6267 70.83069999999999 234 117
N 1342.18 53.4382 109.452 235 118
N 1342.18 53.8244 108.391 236 118
N 1342.18 135.965 55.9347 237 119
N 1342.18 136.097 57.0156 238 119
N 1348.18 14.0642 141.464 239 120
N 1347.9 14.8888 140.77 240 120
N 1342.18 15.3475 139.976 241 121
N 1342.18 16.026 139.097 242 121
N 1342.18 102.725 73.4335 243 122
N 1342.18 102.81 74.5519 244 122
N 1342.18 43.2665 70.4118 245 123
N 1342.18 42.6663 71.34350000000001 246 123
N 1342.18 93.4102 50.8726 247 124
N 1342.18 93.8001 49.8911 248 124
N 1377.96 119.114 69.0804 249 125
N 1377.25 118.772 68.2778 250 125
N 1342.18 73.99039999999999 129.008 251 126
N 1342.18 74.16119999999999 127.89 252 126
N 1342.18 108.003 52.9562 253 127
N 1342.18 108.968 53.5094 254 127
N 1762.49 12.2206 84.64790000000001 255 128
N 1762.6 13.2904 84.94119999999999 256 128
N 1342.18 140.144 73.2008 257 129
N 1342.18 139.016 73.32129999999999 258 129
N 1342.18 24.9247 84.0813 259 130
N 1342.18 26.0021 84.3801 260 130
N 1342.18 135.438 126.609 261 131
N 1342.18 136.539 126.916 262 131
N 1342.18 149.371 79.218 263 132
N 1342.18 0.482496 78.9265 264 132
N 1593.06 60.716 108.344 265 133
N 1592.13 61.1569 107.874 266 133
N 1342.18 35.5856 148.307 267 134
N 1342.18 36.6107 147.972 268 134
N 1394.22 120.575 76.66119999999999 269 135
N 1393.15 120.857 76.851 270 135
N 1342.18 84.97580000000001 48.8034 271 136
N 1342.18 85.2775 47.7763 272 136
N 1342.18 6.61481 28.3633 273 137
N 1342.18 6.93289 27.2795 274 137
N 1342.18 79.6589 66.68559999999999 275 138
N 1342.18 79.02760000000001 65.7433 276 138
N 1342.18 17.0957 27.3569 277 139
N 1342.18 18.1268 26.8065 278 139
N 1342.18 105.206 8.529199999999999 279 140
N 1342.18 105.673 7.52039 280 140
N 1342.18 48.0862 39.014 281 141
N 1342.18 48.2645 40.0953 282 141
N 1342.18 85.30249999999999 19.6443 283 142
N 1342.18 85.90900000000001 20.5667 284 142
N 1342.18 137.386 45.2298 285 143
N 1342.18 137.932 44.2197 286 143
N 1342.18 17.5543 108.447 287 144
N 1342.18 16.5604 108.989 288 144
N 1342.18 141.05 117.11 289 145
N 1342.18 140.186 117.762 290 145
N 1576.34 79.35850000000001 105.671 291 146
N 1576.05 78.7184 106.533 292 146
N 1439.72 29.4576 126.092 293 147
N 1439.69 30.5831 126.111 294 147
N 1412.17 34.6269 131.418 295 148
N 1411.23 35.2525 131.381 296 148
N 1342.18 123.181 103.326 297 149
N 1342.18 124.24 103.598 298 149
N 1342.18 135.537 60.1519 299 150
N 1342.18 136.541 60.6499 300 150
N 1342.18 70.46510000000001 21.4599 301 151
N 1342.18 69.3929 21.6857 302 151
N 1561.51 90.376 24.4804 303 152
N 1561.56 89.82599999999999 25.457 304 152
N 1342.18 46.2741 20.6336 305 153
N 1342.18 46.1968 21.7282 306 153
N 1342.18 47.3954 105.57 307 154
N 1342.18 47.7356 106.631 308 154
N 1399.76 96.9686 41.0875 309 155
N 1399.6 97.49039999999999 42.0618 310 155
N 1471.26 127.978 42.7864 311 156
N 1470.15 127.802 42.68 312 156
N 1360.96 80.9483 68.7407 313 157
N 1361.09 81.42570000000001 69.7461 314 157
N 1342.18 147.342 144.248 315 158
N 1342.18 146.454 143.544 316 158
N 1342.18 9.37682 10.3366 317 159
N 1342.18 8.27605 10.4533 318 159
N 1342.18 55.573 113.061 319 160
N 1342.18 54.4844 113.105 320 160
N 1342.18 135.445 131.206 321 161
N 1342.18 136.536 131.303 322 161
N 1342.18 45.7367 55.6593 323 162
N 1342.18 44.6036 55.6987 324 162
N 1342.18 77.9943 90.1756 325 163
N 1342.18 77.6514 91.2368 326 163
N 1342.18 70.3926 83.021 327 164
N 1342.18 71.5261 82.89570000000001 328 164
N 1342.18 85.4306 135.44 329 165
N 1342.18 84.4101 135.878 330 165
N 1455.99 75.3087 148.451 331 166
N 1456.1 76.0423 149.289 332 166
N 1342.18 137.045 5.03126 333 167
N 1342.18 137.723 5.95849 334 167
N 1362.47 59.6028 76.1131 335 168
N 1361.61 60.0087 76.6905 336 168
N 1342.18 135.129 12.5585 337 169
N 1342.18 135.383 13.6449 338 169
N 1342.18 105.557 105.464 339 170
N 1342.18 105.633 104.362 340 170
N 1342.18 56.2885 93.10939999999999 341 171
N 1342.18 57.1153 92.3952 342 171
N 1342.18 2.45287 16.7401 343 172
N 1342.18 3.47899 17.1577 344 172
N 1342.18 12.2006 98.2123 345 173
N 1342.18 13.2602 97.90860000000001 346 173
N 1342.18 26.5279 120.058 347 174
N 1342.18 26.1105 121.115 348 174
N 1342.18 49.8858 121.52 349 175
N 1342.18 48.7707 121.511 350 175
N 1342.18 93.7676 129.158 351 176
N 1342.18 94.4695 128.266 352 176
N 1342.18 22.1025 49.905 353 177
N 1342.18 22.1822 51.048 354 177
N 1342.18 147.56 30.5815 355 178
N 1342.18 148.35 29.7683 356 178
N 1342.18 122.564 98.1032 357 179
N 1342.18 121.868 97.2702 358 179
N 1369.66 9.60126 86.2732 359 180
N 1369.4 8.520250000000001 86.3741 360 180
N 1342.18 34.8883 129.808 361 181
N 1342.18 35.6602 128.975 362 181
N 1342.18 134.304 41.7272 363 182
N 1342.18 135.292 42.1949 364 182
N 1549.47 108.838 49.1365 365 183
N 1550.25 109.652 49.0335 366 183
N 1342.18 36.1708 54.5822 367 184
N 1342.18 36.9953 53.7943 368 184
N 1342.18 121.18 22.2487 369 185
N 1342.18 121.205 23.375 370 185
N 1342.18 4.62184 8.7432 371 186
N 1342.18 3.54495 8.91113 372 186
N 1552.3 36.8669 104.457 373 187
N 1551.61 37.6847 104.16 374 187
N 1401.3 69.4705 146.387 375 188
N 1400.4 69.9439 145.942 376 188
N 1405.16 22.6337 140.487 377 189
N 1405.35 23.3014 139.573 378 189
N 1342.18 143.948 22.6495 379 190
N 1342.18 144.409 23.6688 380 190
N 1354.39 77.9105 108.721 381 191
N 1353.35 77.7264 108.32 382 191
N 1342.18 22.0142 87.0498 383 192
N 1342.18 23.0449 86.67740000000001 384 192
N 1342.18 102.611 110.553 385 193
N 1342.18 103.494 111.231 386 193
N 1405.84 46.9845 52.475 387 194
N 1406.72 47.1388 51.8385 388 194
N 1342.18 111.736 73.4598 389 195
N 1342.18 110.609 73.5416 390 195
N 1472.09 17.2821 75.2627 391 196
N 1471.48 16.439 75.6514 392 196
N 1342.18 27.6848 106.594 393 197
N 1342.18 28.0327 107.623 394 197
N 1517.67 120.729 44.7414 395 198
N 1516.82 120.202 44.2377 396 198
N 1342.18 2.20736 105.554 397 199
N 1342.18 1.11397 105.188 398 199
N 1342.18 148.279 97.99590000000001 399 200
N 1342.18 149.09 98.73309999999999 400 200
N 1342.18 41.8699 20.4781 401 201
N 1342.18 42.9679 20.3884 402 201
N 1475.44 80.7664 76.5617 403 202
N 1475.07 80.5116 75.52970000000001 404 202
N 1342.18 93.04519999999999 16.8426 405 203
N 1342.18 94.0033 16.2472 406 203
N 1348.06 121.864 12.9995 407 204
N 1348.41 122.928 12.98 408 204
N 1342.18 102.087 99.117 409 205
N 1342.18 102.009 97.9978 410 205
N 1550.51 78.7698 2.15452 411 206
N 1551.13 78.51900000000001 3.06448 412 206
N 1342.18 61.357 149.359 413 207
N 1342.18 62.4718 149.392 414 207
N 1342.18 12.86 144.119 415 208
N 1342.18 12.4637 145.188 416 208
N 1374.78 93.5518 118.062 417 209
N 1373.9 94.22969999999999 118.091 418 209
N 1342.18 23.4523 117.367 419 210
N 1342.18 23.6877 118.428 420 210
N 1342.18 54.2988 118.284 421 211
N 1342.18 53.9697 119.321 422 211
N 1342.18 22.9057 146.853 423 212
N 1342.18 23.3984 147.853 424 212
N 1342.18 111.934 116.583 425 213
N 1342.18 110.806 116.388 426 213
N 1342.18 23.8479 141.335 427 214
N 1342.18 22.8389 140.855 428 214
N 1342.18 97.2353 146.794 429 215
N 1342.18 96.42910000000001 147.582 430 215
N 1342.18 87.5068 68.733 431 216
N 1342.18 86.49679999999999 69.1861 432 216
N 1342.18 11.1431 136.623 433 217
N 1342.18 12.062 137.222 434 217
N 1342.18 26.7335 27.767 435 218
N 1342.18 27.7049 27.2582 436 218
N 1342.18 16.0294 22.6601 437 219
N 1342.18 17.0062 23.225 438 219
N 1427.74 113.052 88.55419999999999 439 220
N 1428.1 112.055 88.8968 440 220
N 1374.93 99.4051 88.8133 441 221
N 1375.92 99.92059999999999 88.9272 442 221
N 1376.18 115.721 22.6374 443 222
N 1375.61 114.823 22.3258 444 222
N 1342.18 77.1778 46.3398 445 223
N 1342.18 78.06529999999999 47.048 446 223
N 1527.04 132.232 0.965251 447 224
N 1527.55 133.153 0.546616 448 224
N 1388.26 64.0151 99.31180000000001 449 225
N 1389.1 64.4401 98.7296 450 225
N 1342.18 96.3809 89.30889999999999 451 226
N 1342.18 97.4282 88.9152 452 226
N 1342.18 71.4384 67.7527 453 227
N 1342.18 72.485 67.33280000000001 454 227
N 1342.18 87.64919999999999 104.714 455 228
N 1342.18 86.5014 104.764 456 228
N 1342.18 111.095 70.42149999999999 457 229
N 1342.18 109.988 70.3809 458 229
N 1385.86 53.2107 9.34915 459 230
N 1385.74 52.437 10.1508 460 230
N 1342.18 72.7867 135.412 461 231
N 1342.18 72.75060000000001 136.547 462 231
N 1827.08 133.936 6.64188 463 232
N 1826.73 133.244 7.43435 464 232
N 1342.18 25.3814 2.24794 465 233
N 1342.18 25.8175 3.28343 466 233
N 1342.18 35.5425 97.9323 467 234
N 1342.18 35.173 96.89060000000001 468 234
N 1476.93 7.68467 86.4969 469 235
N 1476.23 7.96057 87.3293 470 235
N 1476.17 144.836 17.2521 471 236
N 1477.01 145.599 17.1676 472 236
N 1342.18 31.024 12.7249 473 237
N 1342.18 31.7869 11.8949 474 237
N 1342.18 37.5084 110.162 475 238
N 1342.18 38.1086 111.071 476 238
N 1469.61 103.131 100.078 477 239
N 1469.8 102.068 99.7567 478 239
N 1342.18 141.128 61.9685 479 240
N 1342.18 140.291 61.2026 480 240
N 1342.18 91.28060000000001 114.684 481 241
N 1342.18 91.2497 113.586 482 241
N 1342.18 26.985 67.41200000000001 483 242
N 1342.18 26.4934 68.413 484 242
N 1403.93 142.062 82.98869999999999 485 243
N 1403.69 141.461 83.9213 486 243
N 1342.18 137.848 145.216 487 244
N 1342.18 138.911 145.427 488 244
N 1342.18 34.8548 135.001 489 245
N 1342.18 35.2386 133.987 490 245
N 1342.18 76.1442 132.083 491 246
N 1342.18 75.05929999999999 132.473 492 246
N 1342.18 45.8915 86.7679 493 247
N 1342.18 45.7992 87.86320000000001 494 247
N 1342.18 138.684 87.78959999999999 495 248
N 1342.18 139.022 86.6776 496 248
N 1447.53 94.2617 32.6539 497 249
N 1446.88 94.6872 33.451 498 249
N 1380.07 21.8737 139.852 499 250
N 1379.49 21.6524 140.784 500 250
N 1342.18 90.2054 55.7088 501 251
N 1342.18 89.6425 56.6623 502 251
N 1342.18 102.122 26.9394 503 252
N 1342.18 102.132 28.0843 504 252
N 1342.18 2.01973 93.2522 505 253
N 1342.18 2.38106 92.2029 506 253
N 1355.93 35.5309 114.483 507 254
N 1356.51 34.8759 115.186 508 254
N 1342.18 84.95310000000001 146.794 509 255
N 1342.18 84.0457 146.12 510 255
N 1342.18 105.755 47.4275 511 256
N 1342.18 105.205 46.4621 512 256
N 1342.18 25.7395 41.3853 513 257
N 1342.18 26.3706 42.2435 514 257
N 1342.18 88.18170000000001 7.65031 515 258
N 1342.18 88.1337 8.769159999999999 516 258
N 1408.9 103.097 73.2526 517 259
N 1409.33 103.197 74.2812 518 259
N 1443.81 79.1399 17.1423 519 260
N 1443.71 78.35290000000001 16.3586 520 260
N 1342.18 69.2871 91.533 521 261
N 1342.18 68.4104 90.8575 522 261
N 1342.18 61.614 109.059 523 262
N 1342.18 60.6839 109.606 524 262
N 1342.18 46.2892 49.7369 525 263
N 1342.18 46.0356 50.8037 526 263
N 1342.18 69.4948 63.3979 527 264
N 1342.18 70.00879999999999 64.37779999999999 528 264
N 1342.18 32.0834 1.1133 529 265
N 1342.18 31.4136 1.98875 530 265
N 1398.38 48.5002 146.339 531 266
N 1398.55 48.7564 147.418 532 266
N 1342.18 4.07921 0.314292 533 267
N 1342.18 5.00246 149.812 534 267
N 1342.18 60.321 17.056 535 268
N 1342.18 60.5095 15.9444 536 268
N 1546.39 1.63029 17.9034 537 269
N 1545.46 1.07325 18.1535 538 269
N 1342.18 121.422 57.6458 539 270
N 1342.18 121.458 58.7676 540 270
N 1601.36 9.738289999999999 125.067 541 271
N 1601.74 8.966049999999999 124.34 542 271
N 1342.18 45.3571 45.0918 543 272
N 1342.18 45.3932 43.9668 544 272
N 1342.18 67.5136 2.82754 545 273
N 1342.18 66.5839 2.16108 546 273
N 1342.18 117.194 36.7175 547 274
N 1342.18 116.196 36.24 548 274
N 1342.18 89.58240000000001 135.487 549 275
N 1342.18 89.3399 136.58 550 275
N 1342.18 103.326 145.841 551 276
N 1342.18 103.498 146.95 552 276
N 1342.18 118.34 143.818 553 277
N 1342.18 117.27 143.591 554 277
N 1342.18 40.8356 89.41370000000001 555 278
N 1342.18 40.1935 90.3292 556 278
N 1342.18 90.18510000000001 123.531 557 279
N 1342.18 89.9118 122.417 558 279
N 1342.18 38.3267 11.9307 559 280
N 1342.18 37.9342 12.9897 560 280
N 1342.18 131.478 131.29 561 281
N 1342.18 130.405 131.361 562 281
N 1342.18 1.88616 83.2265 563 282
N 1342.18 1.67073 82.1114 564 282
N 1342.18 10.6864 80.6442 565 283
N 1342.18 11.4717 79.81180000000001 566 283
N 1342.18 42.7643 112.832 567 284
N 1342.18 43.8618 112.556 568 284
N 1342.18 21.688 12.7291 569 285
N 1342.18 21.918 13.8107 570 285
N 1342.18 141.583 47.9607 571 286
N 1342.18 141.116 46.9162 572 286
N 1428.34 27.3158 15.418 573 287
N 1428.31 28.1155 16.2029 574 287
N 1456.63 45.505 44.2915 575 288
N 1455.68 45.4586 44.8842 576 288
N 1342.18 113.881 146.378 577 289
N 1342.18 114.592 145.561 578 289
N 1342.18 99.8884 60.0085 579 290
N 1342.18 98.74639999999999 60.0959 580 290
N 1342.18 13.0958 129.33 581 291
N 1342.18 13.7654 128.449 582 291
N 1342.18 78.0046 33.3927 583 292
N 1342.18 77.0074 33.9817 584 292
N 1342.18 66.6837 25.2793 585 293
N 1342.18 67.654 25.741 586 293
N 1342.18 115.969 80.7129 587 294
N 1342.18 115.222 81.5539 588 294
N 1342.18 80.7135 86.2805 589 295
N 1342.18 81.2368 87.24509999999999 590 295
N 1342.18 77.396 84.446 591 296
N 1342.18 77.4962 83.31659999999999 592 296
N 1342.18 29.3555 116.958 593 297
N 1342.18 30.3909 117.261 594 297
N 1342.18 79.2955 133.697 595 298
N 1342.18 78.4161 134.343 596 298
N 1433.25 78.41849999999999 142.406 597 299
N 1432.58 77.5441 142.113 598 299
N 1342.18 48.5878 57.6493 599 300
N 1342.18 48.0108 58.6236 600 300
N 1390.25 141.917 74.8028 601 301
N 1389.78 142.708 75.459 602 301
N 1342.18 105.707 35.129 603 302
N 1342.18 104.594 35.2923 604 302
N 1342.18 67.20189999999999 59.353 605 303
N 1342.18 68.21599999999999 58.8789 606 303
N 1342.18 98.1816 50.8347 607 304
N 1342.18 99.0415 51.5601 608 304
N 1342.18 66.8366 18.8149 609 305
N 1342.18 65.7504 18.492 610 305
N 1342.18 14.501 89.5346 611 306
N 1342.18 15.5538 89.91589999999999 612 306
N 1342.18 0.62738 137.25 613 307
N 1342.18 0.826968 136.147 614 307
N 1342.18 93.11369999999999 56.6303 615 308
N 1342.18 92.6003 55.6587 616 308
N 1342.18 118.126 10.6271 617 309
N 1342.18 117.099 10.3163 618 309
N 1342.18 3.66576 25.1165 619 310
N 1342.18 2.57135 25.229 620 310
N 1342.18 134.165 85.19589999999999 621 311
N 1342.18 133.058 84.9457 622 311
N 1348.66 8.56753 102.756 623 312
N 1347.66 8.10708 102.994 624 312
N 1342.18 2.47268 30.5983 625 313
N 1342.18 3.59561 30.7194 626 313
N 1621.01 111.617 143.502 627 314
N 1621.91 111.784 144.148 628 314
N 1342.18 31.0869 70.32980000000001 629 315
N 1342.18 31.7919 71.2264 630 315
N 1342.18 141.428 66.337 631 316
N 1342.18 140.356 66.0335 632 316
N 1342.18 65.907 104.353 633 317
N 1342.18 65.15260000000001 103.451 634 317
N 1342.18 105.081 131.144 635 318
N 1342.18 104.025 131.442 636 318
N 1638.1 146.517 117.642 637 319
N 1637.3 147.201 118.037 638 319
N 1348.53 93.4228 60.5062 639 320
N 1349.53 93.27419999999999 60.9519 640 320
N 1342.18 97.0215 68.93600000000001 641 321
N 1342.18 97.99299999999999 68.40130000000001 642 321
N 1342.18 63.4575 53.1884 643 322
N 1342.18 63.8352 54.193 644 322
N 1500.68 88.61709999999999 148.591 645 323
N 1499.88 88.4515 147.819 646 323
N 1342.18 133.074 110.719 647 324
N 1342.18 132.436 109.792 648 324
N 1342.18 71.27370000000001 56.9567 649 325
N 1342.18 70.51349999999999 56.1485 650 325
N 1342.18 91.538 77.86199999999999 651 326
N 1342.18 92.631 77.8019 652 326
N 1342.18 67.01949999999999 12.6771 653 327
N 1342.18 67.3168 13.7716 654 327
N 1357.5 69.4864 85.9115 655 328
N 1356.74 69.3098 86.7197 656 328
N 1342.18 138.975 82.3546 657 329
N 1342.18 139.978 82.8139 658 329
N 1365.07 138.503 90.8036 659 330
N 1364.55 138.13 91.7059 660 330
N 1378.44 3.4046 65.83029999999999 661 331
N 1379.57 3.43625 65.80249999999999 662 331
N 1342.18 80.1075 95.0127 663 332
N 1342.18 79.20780000000001 94.3593 664 332
N 1351.5 11.0604 134.867 665 333
N 1350.65 10.7249 135.517 666 333
N 1342.18 73.9242 45.8559 667 334
N 1342.18 73.477 46.8637 668 334
N 1560.21 44.4521 82.6413 669 335
N 1559.21 44.8962 82.8635 670 335
N 1342.18 51.3398 131.791 671 336
N 1342.18 51.9181 130.821 672 336
N 1342.18 140.825 126.293 673 337
N 1342.18 140.162 127.17 674 337
N 1342.18 93.15089999999999 120.182 675 338
N 1342.18 92.3155 119.43 676 338
N 1342.18 8.11018 57.6718 677 339
N 1342.18 7.73782 56.6524 678 339
N 1342.18 101.631 90.1219 679 340
N 1342.18 102.186 89.119 680 340
N 1342.18 137.626 69.0718 681 341
N 1342.18 138.689 69.2332 682 341
N 1342.18 147.469 14.388 683 342
N 1342.18 146.796 13.5192 684 342
N 1363.34 66.7719 120.501 685 343
N 1364.11 66.9957 121.274 686 343
N 1342.18 127.939 43.0377 687 344
N 1342.18 129.025 43.1074 688 344
N 1342.18 49.8423 67.50320000000001 689 345
N 1342.18 49.2005 68.3747 690 345
N 1342.18 11.2431 115.699 691 346
N 1342.18 10.155 115.424 692 346
N 1342.18 62.4511 48.9446 693 347
N 1342.18 61.3466 48.7678 694 347
N 1342.18 129.838 66.5954 695 348
N 1342.18 128.709 66.408 696 348
N 1342.18 55.3762 85.55719999999999 697 349
N 1342.18 56.181 84.8082 698 349
N 1375.17 106.648 149.646 699 350
N 1375.87 105.837 149.339 700 350
N 1342.18 31.269 96.9354 701 351
N 1342.18 31.6061 95.85899999999999 702 351
N 1342.18 50.5319 0.649 703 352
N 1342.18 50.198 149.584 704 352
N 1342.18 137.007 28.0809 705 353
N 1342.18 137.294 27.0144 706 353
N 1342.18 140.237 102.75 707 354
N 1342.18 141.365 102.729 708 354
N 1342.18 131.242 72.3258 709 355
N 1342.18 131.292 73.4714 710 355
N 1342.18 117.362 18.4894 711 356
N 1342.18 117.33 19.6027 712 356
N 1385.15 101.85 35.7474 713 357
N 1385.72 102.212 34.8418 714 357
N 1342.18 127.164 139.522 715 358
N 1342.18 126.273 140.2 716 358
N 1342.18 52.3889 124.752 717 359
N 1342.18 51.6395 125.511 718 359
N 1342.18 38.9953 148.849 719 360
N 1342.18 39.9723 149.359 720 360
N 1342.18 125.575 45.8377 721 361
N 1342.18 124.849 44.9995 722 361
N 1342.18 56.0245 60.5984 723 362
N 1342.18 55.2396 61.4262 724 362
N 1423.01 123.758 117.33 725 363
N 1424.07 123.363 117.226 726 363
N 1342.18 107.832 26.3447 727 364
N 1342.18 108.972 26.3538 728 364
N 1342.18 112.542 46.1017 729 365
N 1342.18 113.647 46.0563 730 365
N 1342.18 7.79606 67.39190000000001 731 366
N 1342.18 8.52289 66.5428 732 366
N 1348.11 66.16679999999999 64.8989 733 367
N 1348.79 65.41379999999999 64.4572 734 367
N 1342.18 11.8857 8.235939999999999 735 368
N 1342.18 10.9887 7.54801 736 368
N 1462.1 103.706 52.4694 737 369
N 1462.51 102.803 51.9516 738 369
N 1505 25.4536 13.3557 739 370
N 1504.11 25.9123 12.8614 740 370
N 1474.06 43.6337 141.706 741 371
N 1473.8 43.8571 142.768 742 371
N 1342.18 101.404 13.9476 743 372
N 1342.18 100.528 13.2593 744 372
N 1342.18 50.8242 19.1797 745 373
N 1342.18 51.6096 18.3528 746 373
N 1417.45 140.147 16.4706 747 374
N 1418.43 139.607 16.4265 748 374
N 1342.18 131.096 89.1298 749 375
N 1342.18 131.014 90.26600000000001 750 375
N 1342.18 95.1858 38.8283 751 376
N 1342.18 94.1964 38.265 752 376
N 1342.18 16.9689 1.11035 753 377
N 1342.18 16.6805 0.0273102 754 377
N 1342.18 85.9619 139.714 755 378
N 1342.18 86.351 138.655 756 378
N 1432.45 53.7177 48.1296 757 379
N 1433.17 54.5149 48.3946 758 379
N 1342.18 142.378 44.6389 759 380
N 1342.18 141.601 43.8658 760 380
N 1342.18 119.262 76.8937 761 381
N 1342.18 118.185 77.20440000000001 762 381
N 1342.18 57.4457 89.09399999999999 763 382
N 1342.18 56.3449 88.97920000000001 764 382
N 1342.18 63.3231 58.7964 765 383
N 1342.18 63.645 57.7155 766 383
N 1350.21 17.0397 74.65730000000001 767 384
N 1349.25 17.1411 74.0638 768 384
N 1342.18 49.2393 51.677 769 385
N 1342.18 50.1854 52.224 770 385
N 1342.18 115.011 126.005 771 386
N 1342.18 116.096 125.709 772 386
N 1342.18 101.684 107.476 773 387
N 1342.18 100.886 106.746 774 387
N 1662.86 118.188 1.16823 775 388
N 1663.15 117.51 1.99932 776 388
N 1342.18 107.626 72.67740000000001 777 389
N 1342.18 106.842 73.456 778 389
N 1342.18 67.42619999999999 54.2925 779 390
N 1342.18 67.8109 53.2462 780 390
N 1342.18 102.724 126.371 781 391
N 1342.18 103.749 126.768 782 391
N 1375.99 104.476 24.9282 783 392
N 1375.58 105.501 24.899 784 392
N 1342.18 107.126 135.413 785 393
N 1342.18 106.005 135.454 786 393
N 1393.88 56.5916 7.82872 787 394
N 1393.6 55.5217 7.9332 788 394
N 1342.18 1.51097 130.966 789 395
N 1342.18 1.90375 129.911 790 395
N 1438.56 80.14919999999999 93.7107 791 396
N 1438.68 81.05840000000001 94.3693 792 396
N 1342.18 81.6003 116.521 793 397
N 1342.18 80.5967 115.979 794 397
N 1342.18 141.861 52.4192 795 398
N 1342.18 141.473 51.3598 796 398
N 1342.18 61.0684 11.8547 797 399
N 1342.18 62.072 12.2912 798 399
N 1342.18 7.73849 31.5498 799 400
N 1342.18 8.41708 32.4301 800 400
N 1342.18 122.839 77.3357 801 401
N 1342.18 123.488 78.253 802 401
N 1454.3 30.0018 73.5714 803 402
N 1454.81 29.0033 73.6294 804 402
N 1342.18 33.3246 23.6057 805 403
N 1342.18 32.8677 24.6268 806 403
N 1342.18 43.9349 102.874 807 404
N 1342.18 45.062 102.74 808 404
N 1342.18 55.8376 45.8284 809 405
N 1342.18 54.7275 46.074 810 405
N 1342.18 88.1194 94.43380000000001 811 406
N 1342.18 87.2192 95.12050000000001 812 406
N 1342.18 135.375 52.3358 813 407
N 1342.18 134.234 52.3471 814 407
N 1342.18 126.315 72.7394 815 408
N 1342.18 127.41 72.6223 816 408
N 1342.18 59.4408 66.5968 817 409
N 1342.18 60.2348 67.3516 818 409
N 1342.18 28.8503 63.1966 819 410
N 1342.18 29.0838 62.0821 820 410
N 1342.18 0.637108 75.1909 821 411
N 1342.18 149.636 75.7145 822 411
N 1342.18 16.1433 47.524 823 412
N 1342.18 15.1988 48.1109 824 412
N 1585.07 73.41670000000001 128.06 825 413
N 1584.62 74.23990000000001 128.683 826 413
N 1357.14 49.4463 71.1589 827 414
N 1356.96 50.4554 71.6301 828 414
N 1488.48 128.96 130.214 829 415
N 1489.16 129.502 130.912 830 415
N 1342.18 126.614 135.694 831 416
N 1342.18 125.867 136.494 832 416
N 1342.18 53.7995 40.5132 833 417
N 1342.18 53.6574 41.6151 834 417
N 1347.04 132.788 59.0133 835 418
N 1347.63 133.718 59.1636 836 418
N 1342.18 105.408 24.3809 837 419
N 1342.18 104.39 23.9516 838 419
N 1342.18 22.0608 108.824 839 420
N 1342.18 21.1197 108.277 840 420
N 1342.18 111.039 62.5726 841 421
N 1342.18 111.824 61.7354 842 421
N 1350.73 148.935 24.4838 843 422
N 1350.67 149.837 25.1302 844 422
N 1522.63 59.2627 20.7125 845 423
N 1522.7 59.2713 19.5842 846 423
N 1342.18 133.111 148.139 847 424
N 1342.18 133.502 147.05 848 424
N 1342.18 17.7422 40.6926 849 425
N 1342.18 18.7709 40.2324 850 425
N 1536.2 52.4819 41.773 851 426
N 1537.03 51.7575 41.891 852 426
N 1650.84 115.757 110.047 853 427
N 1650.72 115.276 111.051 854 427
N 1342.18 48.3901 7.85791 855 428
N 1342.18 47.2695 7.85235 856 428
N 1342.18 92.6294 145.256 857 429
N 1342.18 92.0514 146.176 858 429
N 1342.18 49.4615 86.4687 859 430
N 1342.18 50.2894 87.22920000000001 860 430
N 1480.05 133.064 67.74939999999999 861 431
N 1481.03 132.75 68.1772 862 431
N 1342.18 82.3081 46.3742 863 432
N 1342.18 81.49720000000001 47.1495 864 432
N 1342.18 36.7159 64.89409999999999 865 433
N 1342.18 35.6292 65.0715 866 433
N 1342.18 145.338 28.1977 867 434
N 1342.18 145.585 27.1212 868 434
N 1342.18 76.1726 140.87 869 435
N 1342.18 75.2728 141.522 870 435
N 1342.18 3.34668 76.81829999999999 871 436
N 1342.18 4.33638 77.32040000000001 872 436
N 1353.82 148.001 62.1613 873 437
N 1354.17 147.376 62.983 874 437
N 1342.18 135.919 138.958 875 438
N 1342.18 137.026 139.056 876 438
N 1364.44 56.4253 86.5843 877 439
N 1364.91 55.99 87.4863 878 439
N 1401.17 47.393 73.22929999999999 879 440
N 1400.65 47.9692 74.0467 880 440
N 1431.27 58.0572 137.586 881 441
N 1431.62 58.1376 138.65 882 441
N 1342.18 85.44499999999999 75.8004 883 442
N 1342.18 85.943 76.7526 884 442
N 1453.94 137.632 65.71550000000001 885 443
N 1454.43 136.935 66.4415 886 443
N 1482.03 126.542 39.0727 887 444
N 1481.4 126.462 39.9987 888 444
N 1454.3 14.1679 107.992 889 445
N 1454.63 13.5381 107.118 890 445
N 1418.19 132.069 83.8165 891 446
N 1418.56 132.846 84.5316 892 446
N 1342.18 16.8372 43.9175 893 447
N 1342.18 17.9707 43.7808 894 447
N 1342.18 80.6152 127.718 895 448
N 1342.18 79.6168 127.175 896 448
N 1342.18 129.865 10.033 897 449
N 1342.18 129.821 11.1764 898 449
N 1342.18 46.2608 137.896 899 450
N 1342.18 45.3754 138.574 900 450
N 1342.18 18.5976 12.3174 901 451
N 1342.18 17.5127 12.1381 902 451
N 1342.18 40.8147 128.965 903 452
N 1342.18 41.1728 130.055 904 452
N 1342.18 44.4426 143.427 905 453
N 1342.18 45.5745 143.294 906 453
N 1420.55 59.8275 2.03669 907 454
N 1419.55 59.477 2.33514 908 454
N 1390.13 98.35939999999999 24.0816 909 455
N 1390.6 97.4619 24.5389 910 455
N 1342.18 17.7503 55.7651 911 456
N 1342.18 18.7701 56.124 912 456
N 1342.18 24.577 20.902 913 457
N 1342.18 25.3364 20.0865 914 457
N 1342.18 147.957 89.08710000000001 915 458
N 1342.18 147.127 88.3659 916 458
N 1391.21 56.5103 4.54087 917 459
N 1390.13 56.3113 4.62719 918 459
N 1494.62 25.4658 101.737 919 460
N 1494.52 26.2105 100.916 920 460
N 1342.18 26.9619 31.3444 921 461
N 1342.18 25.8195 31.3799 922 461
N 1342.18 105.583 90.2436 923 462
N 1342.18 106.663 90.5211 924 462
N 1342.18 69.3386 41.3593 925 463
N 1342.18 70.14830000000001 42.1798 926 463
N 1342.18 32.244 101.383 927 464
N 1342.18 31.7215 102.388 928 464
N 1515.11 15.309 6.53678 929 465
N 1515.49 16.0458 7.28333 930 465
N 1455.59 9.000439999999999 87.4692 931 466
N 1456.61 8.71027 87.13979999999999 932 466
N 1456.94 51.8498 61.1615 933 467
N 1457.96 51.8425 60.7019 934 467
N 1669.23 147.486 6.8411 935 468
N 1670.14 147.17 7.41457 936 468
N 1446.07 101.186 110.955 937 469
N 1445.94 100.316 111.644 938 469
N 1385.21 49.0138 68.57689999999999 939 470
N 1385.49 48.5389 67.6178 940 470
N 1342.18 79.4996 44.0093 941 471
N 1342.18 79.53360000000001 42.8984 942 471
N 1342.18 58.3261 57.9433 943 472
N 1342.18 59.178 58.6522 944 472
N 1342.18 29.2486 47.0187 945 473
N 1342.18 29.1183 45.8843 946 473
N 1342.18 5.48438 59.5521 947 474
N 1342.18 5.19839 60.6079 948 474
N 1452.69 37.0693 123.768 949 475
N 1452.54 38.145 123.525 950 475
N 1342.18 44.1243 79.349 951 476
N 1342.18 44.6242 78.3215 952 476
N 1352.49 35.7886 107.904 953 477
N 1353.17 36.4075 107.245 954 477
N 1401.37 52.354 140.114 955 478
N 1402.07 53.1222 140.543 956 478
N 1342.18 16.2947 122.457 957 479
N 1342.18 17.0642 121.626 958 479
N 1378.05 121.853 140.413 959 480
N 1377.11 121.263 140.307 960 480
N 1342.18 142.575 36.3144 961 481
N 1342.18 143.618 35.9228 962 481
N 1373.05 109.676 1.23894 963 482
N 1372.22 110.24 1.74645 964 482
N 1443.24 67.81100000000001 77.86320000000001 965 483
N 1442.3 67.2022 77.68389999999999 966 483
N 1342.18 99.27760000000001 35.7213 967 484
N 1342.18 100.22 36.2893 968 484
N 1486.22 66.4151 67.07210000000001 969 485
N 1486.66 67.1985 66.41849999999999 970 485
N 1342.18 136.173 1.39967 971 486
N 1342.18 137.067 0.707027 972 486
N 1342.18 94.0936 71.6289 973 487
N 1342.18 92.98909999999999 71.636 974 487
N 1356.59 144.574 26.7148 975 488
N 1356.14 145.589 26.7324 976 488
N 1342.18 51.3848 5.15653 977 489
N 1342.18 50.4813 4.4378 978 489
N 1342.18 32.9247 43.7685 979 490
N 1342.18 33.6855 42.918 980 490
N 1342.18 68.1623 95.7957 981 491
N 1342.18 67.8925 94.7157 982 491
N 1456.58 145.15 147.05 983 492
N 1456.8 144.615 148.038 984 492
N 1342.18 17.0153 86.2033 985 493
N 1342.18 18.1092 86.0166 986 493
N 1401.72 135.404 106.255 987 494
N 1401.55 134.321 106.103 988 494
N 1446.56 79.334 34.2616 989 495
N 1445.48 79.1105 34.4311 990 495
N 1342.18 97.52589999999999 10.2578 991 496
N 1342.18 97.6259 9.09864 992 496
N 1570.1 5.28344 148.215 993 497
N 1569.83 5.71954 147.217 994 497
N 1351.17 86.0384 19.9096 995 498
N 1350.47 86.7602 20.4282 996 498
N 1342.18 48.806 102.686 997 499
N 1342.18 49.8651 102.556 998 499
N 1342.18 89.37949999999999 51.4955 999 500
N 1342.18 89.0744 50.4158 1000 500
N 1363.4 122.089 21.9783 1001 501
N 1363.03 121.034 21.8358 1002 501
N 1479.03 55.2362 41.6023 1003 502
N 1478.76 54.1355 41.513 1004 502
N 1539.33 65.91849999999999 82.0129 1005 503
N 1540.26 65.29470000000001 82.0934 1006 503
N 1342.18 118.079 0.914948 1007 504
N 1342.18 119.196 1.09307 1008 504
N 1455.76 94.5363 75.1302 1009 505
N 1455.67 93.599 75.7392 1010 505
N 1648.36 89.7544 118.142 1011 506
N 1648.35 89.8152 117.006 1012 506
N 1342.18 42.8914 34.2931 1013 507
N 1342.18 42.4977 35.3023 1014 507
N 1342.18 91.08499999999999 46.2802 1015 508
N 1342.18 90.9388 47.422 1016 508
N 1342.18 75.7436 123.966 1017 509
N 1342.18 75.45 125.057 1018 509
N 1414.92 85.12949999999999 27.6867 1019 510
N 1414.91 85.1861 28.797 1020 510
N 1342.18 51.5341 116.419 1021 511
N 1342.18 51.3133 117.533 1022 511
N 1342.18 107.606 145.901 1023 512
N 1342.18 107.851 146.993 1024 512
N 1566.72 140.687 52.7432 1025 513
N 1566.06 140.567 53.6355 1026 513
N 1342.18 45.6183 35.8578 1027 514
N 1342.18 46.1566 34.8833 1028 514
N 1342.18 82.1709 133.144 1029 515
N 1342.18 82.8835 132.272 1030 515
N 1523.39 52.9549 112.175 1031 516
N 1522.5 53.2263 111.572 1032 516
N 1381.79 72.8664 77.4701 1033 517
N 1381.12 72.2491 76.82470000000001 1034 517
N 1342.18 108.8 120.892 1035 518
N 1342.18 108.71 119.793 1036 518
N 1342.18 149.108 17.4718 1037 519
N 1342.18 148.129 18.0125 1038 519
N 1342.18 106.735 42.1289 1039 520
N 1342.18 105.764 42.6985 1040 520
N 1342.18 129.516 49.3906 1041 521
N 1342.18 130.636 49.2141 1042 521
N 1410.53 144.992 104.646 1043 522
N 1409.89 145.505 105.398 1044 522
N 1342.18 136.922 109.715 1045 523
N 1342.18 137.863 109.137 1046 523
N 1368.66 86.0074 81.43989999999999 1047 524
N 1368.21 86.83759999999999 82.0689 1048 524
N 1462.65 79.1092 74.33280000000001 1049 525
N 1463.3 78.30629999999999 73.88939999999999 1050 525
N 1437.66 10.3317 94.62869999999999 1051 526
N 1437.87 9.74738 95.56489999999999 1052 526
N 1342.18 71.5677 53.416 1053 527
N 1342.18 71.5787 52.2686 1054 527
N 1342.18 101.968 49.3079 1055 528
N 1342.18 101.947 48.1939 1056 528
N 1342.18 2.82737 62.9668 1057 529
N 1342.18 1.85738 62.4165 1058 529
N 1538.29 112.809 6.33433 1059 530
N 1539.1 113.581 6.39151 1060 530
N 1366.84 6.6679 126.031 1061 531
N 1367.04 5.87916 125.269 1062 531
N 1342.18 79.1952 78.64709999999999 1063 532
N 1342.18 78.72539999999999 79.6438 1064 532
N 1342.18 144.436 106.991 1065 533
N 1342.18 144.301 105.9 1066 533
N 1342.18 12.8723 33.7998 1067 534
N 1342.18 12.4153 34.8113 1068 534
N 1342.18 71.6266 147.813 1069 535
N 1342.18 70.7008 148.361 1070 535
N 1342.18 49.6775 78.57470000000001 1071 536
N 1342.18 49.9987 77.48690000000001 1072 536
N 1342.18 147.737 103.359 1073 537
N 1342.18 146.726 103.753 1074 537
N 1342.18 146.248 50.5221 1075 538
N 1342.18 145.313 49.8462 1076 538
N 1342.18 1.76421 3.38091 1077 539
N 1342.18 2.86041 3.2054 1078 539
N 1345.2 52.4037 46.6472 1079 540
N 1345.35 52.3256 45.5616 1080 540
N 1342.18 56.433 136.471 1081 541
N 1342.18 55.8344 137.41 1082 541
N 1342.18 28.5111 75.4127 1083 542
N 1342.18 29.144 74.4799 1084 542
N 1342.18 141.9 58.4522 1085 543
N 1342.18 141.849 57.3763 1086 543
N 1342.18 62.0234 35.3105 1087 544
N 1342.18 62.9534 35.8793 1088 544
N 1342.18 73.5873 32.861 1089 545
N 1342.18 72.9392 32.0053 1090 545
N 1342.18 134.831 64.7085 1091 546
N 1342.18 135.279 65.7848 1092 546
N 1342.18 55.7898 81.34990000000001 1093 547
N 1342.18 55.2626 80.36660000000001 1094 547
N 1342.18 53.6343 31.2241 1095 548
N 1342.18 54.6892 31.5097 1096 548
N 1342.18 52.1204 23.4119 1097 549
N 1342.18 51.816 24.4603 1098 549
N 1342.18 112.935 121.621 1099 550
N 1342.18 112.822 122.705 1100 550
N 1342.18 63.0442 8.55476 1101 551
N 1342.18 63.4629 9.539630000000001 1102 551
N 1356.63 14.3425 20.0363 1103 552
N 1356.5 14.1268 21.1421 1104 552
N 1342.18 56.0516 99.78449999999999 1105 553
N 1342.18 57.0241 100.284 1106 553
N 1342.18 22.1665 78.1093 1107 554
N 1342.18 21.7532 77.0988 1108 554
N 1342.18 132.565 46.392 1109 555
N 1342.18 132.288 45.2863 1110 555
N 1342.18 92.6306 105.42 1111 556
N 1342.18 91.9585 106.29 1112 556
N 1342.18 69.7216 35.0659 1113 557
N 1342.18 70.5879 35.7827 1114 557
N 1534.49 142.726 140.712 1115 558
N 1535.25 142.814 141.518 1116 558
N 1342.18 34.1489 14.5074 1117 559
N 1342.18 34.465 13.4395 1118 559
N 1460.67 95.51609999999999 6.24244 1119 560
N 1459.9 95.75360000000001 7.0051 1120 560
N 1484.04 54.0533 83.3699 1121 561
N 1485.15 54.0678 83.2718 1122 561
N 1433.24 49.007 64.50239999999999 1123 562
N 1432.58 49.8076 64.8921 1124 562
N 1342.18 10.7402 41.0932 1125 563
N 1342.18 11.12 40.0588 1126 563
N 1342.18 38.7725 17.1198 1127 564
N 1342.18 37.7129 17.2701 1128 564
N 1416.72 71.7993 145.327 1129 565
N 1416.17 71.8351 144.359 1130 565
N 1475.83 23.0083 144.883 1131 566
N 1475.55 23.6459 144.034 1132 566
N 1342.18 94.66849999999999 109.8 1133 567
N 1342.18 93.6293 110.134 1134 567
N 1436.88 85.6504 120.663 1135 568
N 1437.73 86.3064 120.953 1136 568
N 1342.18 104.236 122.173 1137 569
N 1342.18 104.74 123.201 1138 569
N 1342.18 77.0438 75.55 1139 570
N 1342.18 75.9265 75.3039 1140 570
N 1342.18 88.63039999999999 118.253 1141 571
N 1342.18 87.7298 118.901 1142 571
N 1342.18 110.747 137.324 1143 572
N 1342.18 111.839 137.189 1144 572
N 1342.18 27.6919 10.2583 1145 573
N 1342.18 27.5079 11.3672 1146 573
N 1342.18 129.594 143.358 1147 574
N 1342.18 130.671 143.057 1148 574
N 1342.18 129.105 5.75319 1149 575
N 1342.18 130.086 5.24649 1150 575
N 1342.18 25.2007 75.012 1151 576
N 1342.18 25.2768 76.13 1152 576
N 1349.41 49.2192 137.866 1153 577
N 1349.59 49.5812 136.821 1154 577
N 1342.18 122.796 149.921 1155 578
N 1342.18 122.648 1.05088 1156 578
N 1342.18 106.854 12.9369 1157 579
N 1342.18 107.625 13.7483 1158 579
N 1342.18 128.96 147.34 1159 580
N 1342.18 128.54 146.341 1160 580
N 1342.18 62.309 31.3714 1161 581
N 1342.18 63.1668 30.6812 1162 581
N 1342.18 59.2115 80.5166 1163 582
N 1342.18 59.6835 79.574 1164 582
N 1342.18 121.613 124.17 1165 583
N 1342.18 122.396 124.962 1166 583
N 1504.89 56.5922 91.99630000000001 1167 584
N 1504.29 56.8823 91.0855 1168 584
N 1342.18 49.4477 32.1717 1169 585
N 1342.18 50.0115 33.0909 1170 585
N 1342.18 148.119 46.2899 1171 586
N 1342.18 148.766 47.2073 1172 586
N 1342.18 124.017 66.0834 1173 587
N 1342.18 122.982 65.6474 1174 587
N 1362.65 24.8734 132.853 1175 588
N 1363.75 25.127 132.727 1176 588
N 1342.18 112.188 0.236055 1177 589
N 1342.18 111.425 1.04304 1178 589
N 1342.18 71.8248 9.27238 1179 590
N 1342.18 72.8642 8.91189 1180 590
N 1446.98 43.8335 26.8387 1181 591
N 1445.9 43.5751 26.7172 1182 591
N 1342.18 132.152 20.5045 1183 592
N 1342.18 131.346 21.2876 1184 592
N 1514.46 145.176 21.5198 1185 593
N 1514.47 146.088 20.8487 1186 593
N 1342.18 92.4359 24.7448 1187 594
N 1342.18 93.453 24.2744 1188 594
N 1491.19 34.3806 126.264 1189 595
N 1491.57 35.2697 126.83 1190 595
N 1375.56 7.41773 77.2431 1191 596
N 1374.97 8.333930000000001 77.5196 1192 596
N 1342.18 36.978 85.9286 1193 597
N 1342.18 37.6636 86.8137 1194 597
N 1342.18 56.4054 22.0303 1195 598
N 1342.18 55.3715 21.6183 1196 598
N 1434 79.8552 52.2546 1197 599
N 1433.43 79.8946 51.2911 1198 599
N 1342.18 99.15479999999999 22.0796 1199 600
N 1342.18 98.24460000000001 22.7325 1200 600
N 1342.18 59.076 33.2232 1201 601
N 1342.18 58.2593 32.4367 1202 601
N 1468.54 122.127 25.6862 1203 602
N 1467.48 121.763 25.5719 1204 602
N 1342.18 46.894 109.809 1205 603
N 1342.18 45.8267 109.347 1206 603
N 1479.98 124.645 134.742 1207 604
N 1480.32 125.568 134.269 1208 604
N 1342.18 6.15695 4.32761 1209 605
N 1342.18 6.92842 5.09525 1210 605
N 1359.89 38.7134 20.6254 1211 606
N 1358.91 39.2587 20.4999 1212 606
N 1517.43 83.4148 34.5047 1213 607
N 1516.38 83.07689999999999 34.7297 1214 607
N 1369.93 46.0711 43.7563 1215 608
N 1371.04 46.1906 43.5923 1216 608
N 1342.18 100.88 7.88618 1217 609
N 1342.18 100.969 6.76219 1218 609
N 1342.18 144.866 93.1315 1219 610
N 1342.18 145.044 91.98699999999999 1220 610
N 1342.18 124.294 36.514 1221 611
N 1342.18 124.78 35.5149 1222 611
N 1355.88 126.52 123.914 1223 612
N 1356.35 126.412 124.929 1224 612
N 1342.18 87.70059999999999 144.415 1225 613
N 1342.18 86.9453 143.556 1226 613
N 1736.93 119.911 12.3561 1227 614
N 1737.55 119.795 11.4253 1228 614
N 1428.79 12.7787 46.4584 1229 615
N 1427.91 12.0885 46.4519 1230 615
N 1370.49 125.286 98.0369 1231 616
N 1369.5 125.618 97.59269999999999 1232 616
N 1342.18 30.8991 83.587 1233 617
N 1342.18 30.5718 82.5085 1234 617
N 1342.18 46.6492 16.4294 1235 618
N 1342.18 45.8279 17.1359 1236 618
N 1342.18 104.798 79.8515 1237 619
N 1342.18 103.862 79.2296 1238 619
N 1342.18 1.77341 6.68428 1239 620
N 1342.18 0.656357 6.6167 1240 620
N 1342.18 73.70740000000001 116.256 1241 621
N 1342.18 72.8669 116.979 1242 621
N 1368.9 73.1893 103.828 1243 622
N 1368.01 73.2436 103.168 1244 622
N 1342.18 37.2861 83.6345 1245 623
N 1342.18 38.3414 83.373 1246 623
N 1423.26 114.877 8.542 1247 624
N 1423.38 114.775 9.65094 1248 624
N 1593.58 129.855 10.2165 1249 625
N 1593.78 128.993 10.8855 1250 625
N 1342.18 77.09220000000001 99.15649999999999 1251 626
N 1342.18 76.1028 99.66540000000001 1252 626
N 1345.52 21.8678 129.626 1253 627
N 1345.69 21.7627 128.517 1254 627
N 1342.18 26.6398 60.2514 1255 628
N 1342.18 27.551 59.5902 1256 628
N 1342.18 61.915 26.5701 1257 629
N 1342.18 62.488 27.5107 1258 629
N 1782.02 103.153 6.69761 1259 630
N 1782.47 103.561 5.75441 1260 630
N 1342.18 31.4073 67.0247 1261 631
N 1342.18 32.5024 66.8526 1262 631
N 1342.18 76.7647 108.494 1263 632
N 1342.18 75.7903 107.985 1264 632
N 1342.18 16.6168 77.8395 1265 633
N 1342.18 17.5767 78.42189999999999 1266 633
N 1581.27 51.7209 118.634 1267 634
N 1580.94 51.467 119.685 1268 634
N 1342.18 149.267 65.39579999999999 1269 635
N 1342.18 148.265 65.8942 1270 635
N 1342.18 124.146 24.8341 1271 636
N 1342.18 124.588 23.8503 1272 636
N 1342.18 49.1811 13.2189 1273 637
N 1342.18 50.1688 12.7236 1274 637
N 1667.3 65.6105 26.366 1275 638
N 1666.99 64.8691 25.5809 1276 638
N 1342.18 70.75360000000001 61.0461 1277 639
N 1342.18 70.1263 60.1635 1278 639
N 1342.18 120.023 45.8906 1279 640
N 1342.18 120.992 45.2419 1280 640
N 1342.18 8.35411 36.098 1281 641
N 1342.18 8.33394 37.1961 1282 641
N 1342.18 128.866 17.141 1283 642
N 1342.18 127.777 16.894 1284 642
N 1418.2 134.61 23.6794 1285 643
N 1417.41 133.832 23.4333 1286 643
N 1342.18 40.8207 23.6454 1287 644
N 1342.18 40.4238 24.7152 1288 644
N 1348.32 87.2407 24.1808 1289 645
N 1347.88 86.8121 25.1202 1290 645
N 1388.39 26.2445 148.018 1291 646
N 1387.32 25.8935 147.918 1292 646
N 1342.18 35.2223 30.3597 1293 647
N 1342.18 35.9534 29.5315 1294 647
N 1385.8 46.1272 3.78008 1295 648
N 1386.09 45.0442 3.72029 1296 648
N 1379.82 77.18219999999999 115.241 1297 649
N 1379.32 76.2111 115.492 1298 649
N 1550.53 31.4514 75.0829 1299 650
N 1551.49 31.8604 75.4991 1300 650
N 1342.18 44.6672 148.106 1301 651
N 1342.18 44.1002 147.137 1302 651
N 1417.55 114.98 78.0998 1303 652
N 1417.57 114.894 76.98999999999999 1304 652
N 1609.47 3.77598 42.9573 1305 653
N 1609.64 2.7698 42.482 1306 653
N 1342.18 22.6007 29.091 1307 654
N 1342.18 22.1881 28.0334 1308 654
N 1342.18 4.9862 117.05 1309 655
N 1342.18 4.23102 116.229 1310 655
N 1383.61 40.6085 64.6258 1311 656
N 1382.66 41.1293 64.3142 1312 656
N 1342.18 12.1846 29.6424 1313 657
N 1342.18 13.1187 29.043 1314 657
N 1421.03 70.33839999999999 14.5622 1315 658
N 1420.93 69.2283 14.6518 1316 658
N 1342.18 112.599 85.68940000000001 1317 659
N 1342.18 113.345 84.8734 1318 659
N 1342.18 110.786 141.838 1319 660
N 1342.18 110.256 140.838 1320 660
N 1409.83 71.14879999999999 125.225 1321 661
N 1409.94 71.3721 126.321 1322 661
N 1342.18 9.898239999999999 129.166 1323 662
N 1342.18 10.7454 128.407 1324 662
N 1342.18 8.75671 132.577 1325 663
N 1342.18 9.845929999999999 132.723 1326 663
N 1457.9 0.747293 72.4084 1327 664
N 1458.59 149.934 72.7273 1328 664
N 1527.63 88.0474 44.545 1329 665
N 1528.4 87.75530000000001 43.7878 1330 665
N 1342.18 12.1901 25.9334 1331 666
N 1342.18 13.2459 25.5509 1332 666
N 1342.18 58.3567 114.566 1333 667
N 1342.18 59.2637 115.216 1334 667
N 1342.18 42.1951 44.6973 1335 668
N 1342.18 42.0935 45.7864 1336 668
N 1662.41 76.3801 24.8501 1337 669
N 1662.6 76.0603 25.8997 1338 669
N 1342.18 75.6718 112.763 1339 670
N 1342.18 76.1589 111.751 1340 670
N 1342.18 79.4757 146.724 1341 671
N 1342.18 80.40000000000001 146.095 1342 671
N 1342.18 86.3182 44.2591 1343 672
N 1342.18 86.6323 43.1743 1344 672
N 1561.84 119.64 66.22239999999999 1345 673
N 1562.95 119.451 66.12220000000001 1346 673
N 1342.18 52.7896 68.973 1347 674
N 1342.18 53.4811 69.8473 1348 674
N 1342.18 56.9321 141.977 1349 675
N 1342.18 56.8697 140.859 1350 675
N 1342.18 117.654 42.9675 1351 676
N 1342.18 116.87 43.7535 1352 676
N 1342.18 61.1515 133.967 1353 677
N 1342.18 60.0348 134.132 1354 677
N 1342.18 109.79 3.91362 1355 678
N 1342.18 109.49 4.99487 1356 678
N 1422.22 14.6862 4.89725 1357 679
N 1422.45 13.597 4.88455 1358 679
N 1567.59 80.7683 69.72750000000001 1359 680
N 1566.62 80.6818 69.17529999999999 1360 680
N 1452.67 17.7098 143.6 1361 681
N 1452.67 17.8512 144.7 1362 681
N 1342.18 93.8391 65.9676 1363 682
N 1342.18 94.9175 66.4134 1364 682
N 1342.18 116.655 106.546 1365 683
N 1342.18 115.991 105.645 1366 683
N 1342.18 42.957 106.958 1367 684
N 1342.18 42.9058 108.076 1368 684
N 1511 21.4453 57.1645 1369 685
N 1510.97 20.3228 57.1785 1370 685
N 1589.66 82.8278 129.255 1371 686
N 1590.07 83.4492 130.083 1372 686
N 1342.18 59.4274 52.5181 1373 687
N 1342.18 60.2955 51.7863 1374 687
N 1378.47 88.8956 33.4898 1375 688
N 1378.39 88.30289999999999 32.5464 1376 688
N 1342.18 58.8725 118.853 1377 689
N 1342.18 59.3161 119.893 1378 689
N 1342.18 113.84 40.1979 1379 690
N 1342.18 113.99 39.1173 1380 690
N 1342.18 81.2509 51.7048 1381 691
N 1342.18 81.95359999999999 50.8812 1382 691
N 1527.41 31.4968 113.211 1383 692
N 1528.03 32.4287 113.373 1384 692
N 1342.18 117.604 70.3541 1385 693
N 1342.18 117.901 71.3961 1386 693
N 1370.23 104.036 11.6818 1387 694
N 1369.96 102.971 11.9272 1388 694
N 1342.18 21.3145 114.82 1389 695
N 1342.18 22.3369 114.363 1390 695
N 1461.7 106.853 117.953 1391 696
N 1462.34 105.952 118.188 1392 696
N 1409.41 83.36620000000001 96.2989 1393 697
N 1408.73 83.7269 97.1086 1394 697
N 1342.18 36.9867 0.748713 1395 698
N 1342.18 36.6524 1.79051 1396 698
N 1353.13 120.633 136.36 1397 699
N 1353.86 120.787 135.534 1398 699
N 1347.17 89.3167 147.897 1399 700
N 1347.33 88.414 148.549 1400 700
N 1366.27 26.2454 30.6796 1401 701
N 1366.86 27.2008 30.6239 1402 701
N 1342.18 38.1226 37.7085 1403 702
N 1342.18 38.6263 36.7117 1404 702
N 1381.45 131.405 30.5593 1405 703
N 1381.01 132.23 31.1792 1406 703
N 1399.09 90.886 130.546 1407 704
N 1399.47 90.5215 129.544 1408 704
N 1406.7 87.959 126.305 1409 705
N 1406.06 88.3673 127.101 1410 705
N 1342.18 14.9065 112.373 1411 706
N 1342.18 14.2772 111.435 1412 706
N 1342.18 35.3397 107.97 1413 707
N 1342.18 34.4183 107.434 1414 707
N 1347 61.8391 46.6797 1415 708
N 1346.92 61.1945 47.6005 1416 708
N 1360.13 111.064 19.6497 1417 709
N 1359.47 111.259 20.5047 1418 709
N 1346.4 78.7359 98.1588 1419 710
N 1345.43 79.1688 98.414 1420 710
N 1342.18 50.9061 96.3732 1421 711
N 1342.18 50.6311 97.45959999999999 1422 711
N 1342.18 85.1353 62.059 1423 712
N 1342.18 84.3242 61.2908 1424 712
N 1433.35 95.2509 8.322979999999999 1425 713
N 1432.29 95.1965 7.99413 1426 713
N 1342.18 47.9994 81.7869 1427 714
N 1342.18 46.9632 81.3729 1428 714
N 1424.89 35.4826 49.3677 1429 715
N 1425.72 35.0529 49.9544 1430 715
N 1342.18 142.416 76.0004 1431 716
N 1342.18 141.656 76.8214 1432 716
N 1342.18 66.3142 49.1699 1433 717
N 1342.18 65.52549999999999 49.9518 1434 717
N 1342.18 7.57923 125.477 1435 718
N 1342.18 8.663069999999999 125.495 1436 718
N 1524.21 118.301 10.3234 1437 719
N 1523.32 118.101 9.667730000000001 1438 719
N 1342.18 114.127 30.2289 1439 720
N 1342.18 114.32 31.3341 1440 720
N 1342.18 139.087 33.7858 1441 721
N 1342.18 139.254 34.8616 1442 721
N 1342.18 20.627 7.74949 1443 722
N 1342.18 19.5381 7.57912 1444 722
N 1452.32 139.928 25.1015 1445 723
N 1451.85 139.292 25.9118 1446 723
N 1342.18 83.3146 41.1836 1447 724
N 1342.18 84.34999999999999 41.5769 1448 724
N 1342.18 81.2705 149.057 1449 725
N 1342.18 82.2897 149.445 1450 725
N 1342.18 122.31 133.037 1451 726
N 1342.18 122.861 134.021 1452 726
N 1342.18 72.75579999999999 102.882 1453 727
N 1342.18 72.8631 101.734 1454 727
N 1537.33 148.168 106.134 1455 728
N 1538.25 147.873 105.572 1456 728
N 1476.3 35.5819 80.0154 1457 729
N 1477.09 36.2068 80.52500000000001 1458 729
N 1342.18 123.546 9.145799999999999 1459 730
N 1342.18 124.618 9.320790000000001 1460 730
N 1483.34 30.7375 107.026 1461 731
N 1483.06 29.7174 107.407 1462 731
N 1342.18 117.89 6.29107 1463 732
N 1342.18 118.976 6.51644 1464 732
N 1342.18 59.2472 126.222 1465 733
N 1342.18 60.3592 126.401 1466 733
N 1342.18 71.3331 122.908 1467 734
N 1342.18 71.0633 124.01 1468 734
N 1342.18 129.139 80.1542 1469 735
N 1342.18 128.647 79.1554 1470 735
N 1342.18 15.3907 37.228 1471 736
N 1342.18 14.9684 38.2451 1472 736
N 1342.18 85.4915 65.884 1473 737
N 1342.18 86.46720000000001 65.36969999999999 1474 737
N 1342.18 120.306 146.457 1475 738
N 1342.18 121.001 147.314 1476 738
N 1342.18 122.955 13.789 1477 739
N 1342.18 123.332 14.8689 1478 739
N 1342.18 12.9173 123.211 1479 740
N 1342.18 11.9657 122.621 1480 740
N 1342.18 142.258 149.51 1481 741
N 1342.18 142.247 148.421 1482 741
N 1471.44 11.9636 22.7461 1483 742
N 1471.21 12.6124 21.8652 1484 742
N 1342.18 135.702 99.9332 1485 743
N 1342.18 135.073 99.0517 1486 743
N 1438.02 76.1397 4.69792 1487 744
N 1437.19 76.8762 4.46272 1488 744
N 1377.33 23.2352 71.874 1489 745
N 1377.75 24.2682 71.8223 1490 745
N 1342.18 143.859 80.4327 1491 746
N 1342.18 142.768 80.7534 1492 746
N 1342.18 85.9235 38.7267 1493 747
N 1342.18 87.0018 38.8511 1494 747
N 1342.18 64.5468 87.5038 1495 748
N 1342.18 64.1163 88.52419999999999 1496 748
N 1342.18 63.7878 44.8921 1497 749
N 1342.18 64.239 43.8359 1498 749
N 1342.18 119.017 107.065 1499 750
N 1342.18 119.113 108.172 1500 750
N 1342.18 22.4059 93.0483 1501 751
N 1342.18 23.2387 93.8049 1502 751
N 1342.18 98.1414 63.4971 1503 752
N 1342.18 98.3535 64.574 1504 752
N 1342.18 104.583 20.7214 1505 753
N 1342.18 103.578 20.2307 1506 753
N 1402.25 45.9349 48.4854 1507 754
N 1402.47 45.4908 47.5018 1508 754
N 1342.18 116.361 139.515 1509 755
N 1342.18 117.481 139.694 1510 755
N 1379.36 16.2085 78.2385 1511 756
N 1379.5 15.371 78.95829999999999 1512 756
N 1342.18 33.9587 120.089 1513 757
N 1342.18 34.733 120.899 1514 757
N 1411.3 49.2378 84.2953 1515 758
N 1412.02 49.7556 83.5784 1516 758
N 1342.18 105.417 57.5399 1517 759
N 1342.18 104.45 57.0286 1518 759
N 1405.72 65.65560000000001 85.8472 1519 760
N 1405.46 66.49339999999999 86.5455 1520 760
N 1420.5 140.984 147.974 1521 761
N 1420.34 141.28 146.891 1522 761
N 1398.14 52.0095 122.705 1523 762
N 1398.36 52.6848 123.566 1524 762
N 1342.18 133.602 69.4532 1525 763
N 1342.18 134.628 69.0775 1526 763
N 1367.04 112.316 69.8814 1527 764
N 1367.11 111.189 69.73609999999999 1528 764
N 1342.18 4.00431 125.597 1529 765
N 1342.18 3.05593 125.022 1530 765
N 1342.18 141.102 95.5718 1531 766
N 1342.18 142.208 95.7193 1532 766
N 1434.7 64.6493 1.06972 1533 767
N 1434.31 65.1717 0.161707 1534 767
N 1414.57 43.2346 84.1318 1535 768
N 1414.81 42.2864 83.5896 1536 768
N 1474.35 143.97 110.769 1537 769
N 1475.13 144.746 110.69 1538 769
N 1416.37 65.9597 15.0396 1539 770
N 1416.21 65.6934 13.9622 1540 770
N 1342.18 37.0947 78.6373 1541 771
N 1342.18 37.9878 79.3462 1542 771
N 1444.6 108.717 19.7494 1543 772
N 1443.69 108.91 19.0872 1544 772
N 1369.51 19.7352 14.0986 1545 773
N 1369.98 20.5979 14.6146 1546 773
N 1342.18 135.666 142.851 1547 774
N 1342.18 134.564 142.634 1548 774
N 1374.46 145.958 62.8899 1549 775
N 1374.33 145.114 62.1763 1550 775
N 1428 74.1859 80.0778 1551 776
N 1427.23 74.69629999999999 80.73690000000001 1552 776
N 1342.18 113.333 129.226 1553 777
N 1342.18 112.828 128.254 1554 777
N 1342.18 119.902 116.752 1555 778
N 1342.18 120.97 116.345 1556 778
N 1847.62 103.564 78.78100000000001 1557 779
N 1848.1 103.351 79.78279999999999 1558 779
N 1363.69 66.18380000000001 24.6416 1559 780
N 1362.91 65.8014 23.9507 1560 780
N 1342.18 52.747 146.901 1561 781
N 1342.18 53.1126 145.841 1562 781
N 1342.18 60.0999 70.7012 1563 782
N 1342.18 60.8293 71.5819 1564 782
N 1342.18 87.122 72.72110000000001 1565 783
N 1342.18 87.99639999999999 72.0303 1566 783
N 1342.18 127.633 83.5265 1567 784
N 1342.18 128.59 84.1855 1568 784
N 1342.18 90.05289999999999 20.707 1569 785
N 1342.18 89.90049999999999 19.6198 1570 785
N 1472 96.8278 131.459 1571 786
N 1471.7 97.9037 131.649 1572 786
N 1365.18 28.5403 6.90734 1573 787
N 1365.64 29.3612 7.4905 1574 787
N 1342.18 45.0806 93.0372 1575 788
N 1342.18 45.2774 94.14060000000001 1576 788
N 1342.18 90.6349 67.4603 1577 789
N 1342.18 90.88160000000001 68.5823 1578 789
N 1342.18 51.7304 59.3208 1579 790
N 1342.18 51.5613 58.2287 1580 790
N 1342.18 75.7308 95.22190000000001 1581 791
N 1342.18 74.6083 95.1409 1582 791
N 1342.18 68.54689999999999 114.357 1583 792
N 1342.18 67.9866 113.344 1584 792
N 1342.18 55.727 49.9904 1585 793
N 1342.18 55.5035 51.0918 1586 793
N 1342.18 55.9231 131.894 1587 794
N 1342.18 56.8231 132.557 1588 794
N 1427 56.5997 114.267 1589 795
N 1425.91 56.6845 114.005 1590 795
N 1364.47 47.6965 130.367 1591 796
N 1363.56 47.9551 130.953 1592 796
N 1342.18 144.681 129.552 1593 797
N 1342.18 145.745 129.146 1594 797
N 1342.18 86.2749 115.64 1595 798
N 1342.18 87.056 114.826 1596 798
N 1409.58 64.85339999999999 59.2241 1597 799
N 1408.49 64.61239999999999 59.4108 1598 799
N 1342.18 23.7007 58.5025 1599 800
N 1342.18 22.7753 57.8792 1600 800
N 1418.29 128.053 146.847 1601 801
N 1417.42 127.77 146.198 1602 801
N 1342.18 127.112 0.900523 1603 802
N 1342.18 126.095 0.475182 1604 802
N 1342.18 147.467 40.0356 1605 803
N 1342.18 146.396 39.8268 1606 803
N 1466.04 136.024 27.0408 1607 804
N 1465.29 135.365 27.5643 1608 804
N 1693.44 87.86369999999999 36.9934 1609 805
N 1694.08 87.4255 37.7935 1610 805
N 1690.94 23.6264 18.6529 1611 806
N 1691.88 23.0769 18.4431 1612 806
N 1448.07 11.696 40.5562 1613 807
N 1448.37 12.4454 41.3206 1614 807
N 1448.01 54.1122 92.0866 1615 808
N 1447.32 53.2382 92.2804 1616 808
N 1342.18 96.58320000000001 5.5981 1617 809
N 1342.18 95.94880000000001 6.50877 1618 809
N 1342.18 94.3978 92.5428 1619 810
N 1342.18 94.7259 93.62820000000001 1620 810
N 1519.23 142.691 6.56673 1621 811
N 1518.56 142.607 7.46824 1622 811
N 1552.09 73.0856 120.898 1623 812
N 1551.39 73.9306 120.825 1624 812
N 1524.63 47.6287 57.6478 1625 813
N 1523.87 46.8075 57.646 1626 813
N 1507.08 99.73180000000001 28.5913 1627 814
N 1507.05 100.818 28.8597 1628 814
N 1342.18 89.1865 139.867 1629 815
N 1342.18 90.2854 139.803 1630 815
N 1342.18 71.5164 139.908 1631 816
N 1342.18 70.61450000000001 139.244 1632 816
N 1578.03 128.039 49.1965 1633 817
N 1578.67 128.692 49.8095 1634 817
N 1452.12 82.7089 74.5416 1635 818
N 1452.84 81.91379999999999 74.91840000000001 1636 818
N 1353.94 2.17474 142.344 1637 819
N 1353.31 1.89744 143.234 1638 819
N 1342.18 24.892 48.4493 1639 820
N 1342.18 25.0903 47.3887 1640 820
N 1495.72 37.443 63.2334 1641 821
N 1495.01 38.2191 63.637 1642 821
N 1342.18 5.39109 48.5061 1643 822
N 1342.18 4.44358 47.876 1644 822
N 1342.18 95.1225 20.1287 1645 823
N 1342.18 94.01130000000001 19.8693 1646 823
N 1424.62 67.39060000000001 1.92859 1647 824
N 1424.12 66.4021 1.96068 1648 824
N 1497.43 47.9842 23.8422 1649 825
N 1496.55 47.5784 24.4277 1650 825
N 1386.24 46.5337 0.307219 1651 826
N 1385.34 45.9106 0.0897633 1652 826
N 1468.88 57.2412 50.7703 1653 827
N 1469.87 56.8811 51.1482 1654 827
N 1451.61 98.0549 137.372 1655 828
N 1450.91 97.8013 136.556 1656 828
N 1486.92 45.2808 78.5889 1657 829
N 1487.24 44.2111 78.6645 1658 829
N 1460.5 32.3281 91.7843 1659 830
N 1461.22 32.3683 90.92010000000001 1660 830
N 1342.18 62.3893 120.426 1661 831
N 1342.18 62.3719 121.513 1662 831
N 1342.18 102.459 40.1204 1663 832
N 1342.18 101.396 39.6871 1664 832
N 1342.18 98.4409 133.273 1665 833
N 1342.18 98.7929 134.308 1666 833
N 1342.18 72.75060000000001 39.4189 1667 834
N 1342.18 73.2025 38.3744 1668 834
N 1439.04 33.2777 32.9255 1669 835
N 1438.84 32.4446 32.2091 1670 835
N 1342.18 108.922 130.355 1671 836
N 1342.18 109.332 129.324 1672 836
N 1342.18 37.0284 118.708 1673 837
N 1342.18 37.7721 119.556 1674 837
N 1576.67 24.2192 57.5004 1675 838
N 1577.39 24.8416 58.0875 1676 838
N 1342.18 87.32340000000001 131.504 1677 839
N 1342.18 88.45399999999999 131.387 1678 839
N 1342.18 36.7857 21.1395 1679 840
N 1342.18 37.8935 20.9927 1680 840
N 1355.37 92.0534 46.3311 1681 841
N 1354.75 91.18980000000001 46.6986 1682 841
N 1384.48 16.9758 10.6763 1683 842
N 1384.52 18.0239 10.3473 1684 842
N 1484.12 108.172 110.318 1685 843
N 1483.31 107.854 109.603 1686 843
N 1433.83 91.905 62.1563 1687 844
N 1433.99 91.75960000000001 63.2502 1688 844
N 1417.91 86.54340000000001 126.512 1689 845
N 1417.56 85.5342 126.137 1690 845
N 1516.73 149.154 44.5917 1691 846
N 1516.9 148.208 45.1159 1692 846
N 1582.22 92.29770000000001 21.9398 1693 847
N 1582.5 91.3985 22.5371 1694 847
N 1409.77 110.443 118.655 1695 848
N 1409.15 109.759 119.266 1696 848
N 1486.1 104.404 44.425 1697 849
N 1486.43 105.41 44.0687 1698 849
N 1412.47 103.413 70.6078 1699 850
N 1413.58 103.306 70.4619 1700 850
N 1342.18 129.013 31.2605 1701 851
N 1342.18 129.424 30.194 1702 851
N 1558.49 59.8527 142.296 1703 852
N 1557.65 59.9584 143.045 1704 852
N 1375.56 137.01 27.1497 1705 853
N 1376.51 137.305 26.6331 1706 853
N 1342.18 44.7333 25.4826 1707 854
N 1342.18 43.8262 24.8903 1708 854
N 1342.18 98.236 41.9656 1709 855
N 1342.18 98.7522 42.9483 1710 855
N 1342.18 147.681 136.946 1711 856
N 1342.18 147.313 135.901 1712 856
N 1448.77 31.2128 84.4941 1713 857
N 1449.28 31.9797 85.12350000000001 1714 857
N 1342.18 74.8145 19.1902 1715 858
N 1342.18 73.6925 19.1733 1716 858
N 1480.89 2.89487 79.1814 1717 859
N 1480.74 2.37318 80.17 1718 859
N 1554.04 71.1015 122.814 1719 860
N 1552.91 71.1292 122.856 1720 860
N 1488.79 143.814 149.547 1721 861
N 1487.72 143.631 149.752 1722 861
N 1414.98 140.652 58.5623 1723 862
N 1415.29 141.749 58.4687 1724 862
N 1342.18 75.8875 6.90674 1725 863
N 1342.18 76.99079999999999 6.83578 1726 863
N 1342.18 75.4021 64.0724 1727 864
N 1342.18 74.75069999999999 64.9464 1728 864
N 1342.18 1.1801 121.753 1729 865
N 1342.18 1.66283 120.725 1730 865
N 1415.07 141.708 11.1584 1731 866
N 1414.48 142.264 11.9146 1732 866
N 1342.18 68.3467 125.973 1733 867
N 1342.18 67.3703 125.475 1734 867
N 1342.18 79.7037 101.217 1735 868
N 1342.18 78.85720000000001 101.91 1736 868
N 1355.61 83.27970000000001 84.7406 1737 869
N 1355.24 83.7834 85.6823 1738 869
N 1342.18 5.72941 129.746 1739 870
N 1342.18 4.98693 128.928 1740 870
N 1351.89 44.6891 66.6555 1741 871
N 1351.41 43.6756 66.562 1742 871
N 1418.76 4.69978 118.784 1743 872
N 1419.09 5.74377 118.929 1744 872
N 1380.14 109.879 93.4164 1745 873
N 1380.53 109.91 92.34480000000001 1746 873
N 1500.49 40.8077 140.263 1747 874
N 1499.53 40.6628 139.653 1748 874
N 1342.18 41.1554 55.8912 1749 875
N 1342.18 40.4328 55.0582 1750 875
N 1363.53 115.496 92.22150000000001 1751 876
N 1362.99 115.441 91.2231 1752 876
N 1434.94 129.256 111.63 1753 877
N 1435.28 128.383 111.022 1754 877
N 1342.18 4.35835 102.379 1755 878
N 1342.18 5.13661 101.609 1756 878
N 1342.18 12.5964 64.8937 1757 879
N 1342.18 11.5403 64.5942 1758 879
N 1349.01 98.44799999999999 60.8708 1759 880
N 1348.12 99.0257 61.2301 1760 880
N 1342.18 66.65430000000001 38.1593 1761 881
N 1342.18 65.5235 38.0439 1762 881
N 1342.18 84.042 2.34955 1763 882
N 1342.18 84.8896 3.06298 1764 882
N 1351.34 106.634 66.72709999999999 1765 883
N 1352.15 105.959 67.1651 1766 883
N 1342.18 91.15049999999999 95.85890000000001 1767 884
N 1342.18 91.26000000000001 94.7749 1768 884
N 1342.18 40.0167 31.5048 1769 885
N 1342.18 38.8813 31.3751 1770 885
N 1342.18 113.711 98.77249999999999 1771 886
N 1342.18 112.795 99.4418 1772 886
N 1342.18 57.6716 96.8678 1773 887
N 1342.18 58.307 95.9562 1774 887
N 1342.18 63.4051 137.428 1775 888
N 1342.18 64.12390000000001 138.291 1776 888
N 1342.18 9.19894 13.7472 1777 889
N 1342.18 10.065 14.4295 1778 889
N 1428.81 84.93989999999999 138.576 1779 890
N 1427.86 84.8792 137.983 1780 890
N 1402.86 58.1876 19.6889 1781 891
N 1403.45 57.2383 19.8846 1782 891
N 1342.18 118.043 31.8088 1783 892
N 1342.18 117.179 32.4571 1784 892
N 1529.58 140.713 96.5005 1785 893
N 1529.9 141.447 97.2863 1786 893
N 1342.18 62.9507 21.7283 1787 894
N 1342.18 63.3501 20.6793 1788 894
N 1342.18 131.764 42.2568 1789 895
N 1342.18 131.204 41.2566 1790 895
N 1491.82 36.3046 35.9956 1791 896
N 1491.37 37.3166 36.1349 1792 896
N 1389.01 145.105 140.338 1793 897
N 1389.77 144.303 140.44 1794 897
N 1375.18 119.795 83.2885 1795 898
N 1374.45 120.16 84.05419999999999 1796 898
N 1342.18 83.15689999999999 141.913 1797 899
N 1342.18 83.0735 143.006 1798 899
N 1401.03 78.5599 135.997 1799 900
N 1400.1 78.0098 135.702 1800 900
N 1342.18 4.94978 143.465 1801 901
N 1342.18 5.29223 144.491 1802 901
N 1342.18 36.7726 125.087 1803 902
N 1342.18 37.641 125.759 1804 902
N 1558.55 52.1019 83.0151 1805 903
N 1558.53 52.2919 84.1046 1806 903
N 1353.73 8.37819 103.322 1807 904
N 1353.9 7.94069 102.305 1808 904
N 1342.18 34.1427 38.5609 1809 905
N 1342.18 33.9353 39.6592 1810 905
N 1342.18 30.1383 105.608 1811 906
N 1342.18 31.232 105.493 1812 906
N 1359.8 112.92 63.5937 1813 907
N 1358.99 112.685 62.8436 1814 907
N 1375.67 114.572 42.1648 1815 908
N 1376.4 114.938 42.9366 1816 908
N 1342.18 22.4097 124.843 1817 909
N 1342.18 21.7222 125.718 1818 909
N 1440.8 69.9718 141.977 1819 910
N 1440.42 69.4127 141.076 1820 910
N 1342.18 87.7655 26.1176 1821 911
N 1342.18 88.1182 27.1731 1822 911
N 1712.63 91.90819999999999 45.8363 1823 912
N 1711.92 91.39279999999999 45.1437 1824 912
N 1354.55 77.9243 5.68565 1825 913
N 1355 77.62869999999999 4.69223 1826 913
N 1342.18 141.986 32.0305 1827 914
N 1342.18 142.596 33.0232 1828 914
N 1402.09 82.20050000000001 100.743 1829 915
N 1401.79 82.72369999999999 101.667 1830 915
N 1857.78 66.78579999999999 142.483 1831 916
N 1857.82 65.7747 141.992 1832 916
N 1342.18 137.327 78.32380000000001 1833 917
N 1342.18 138.383 77.99890000000001 1834 917
N 1342.18 17.7761 72.134 1835 918
N 1342.18 16.7666 71.5856 1836 918
N 1342.18 121.335 53.1325 1837 919
N 1342.18 122.467 53.2797 1838 919
N 1412.45 123.001 96.5262 1839 920
N 1412.94 122.001 96.73699999999999 1840 920
N 1342.18 106.716 80.93600000000001 1841 921
N 1342.18 107.743 81.3394 1842 921
N 1342.18 79.46980000000001 119.632 1843 922
N 1342.18 78.3591 119.402 1844 922
N 1342.18 42.1255 14.6585 1845 923
N 1342.18 42.7669 15.5963 1846 923
N 1349.53 66.11579999999999 147.035 1847 924
N 1350.07 66.43040000000001 147.968 1848 924
N 1436.21 63.0346 118.817 1849 925
N 1435.67 63.8435 118.276 1850 925
N 1494.05 17.182 75.31999999999999 1851 926
N 1494.33 17.0786 74.25069999999999 1852 926
N 1412.34 115.615 136.295 1853 927
N 1412.43 114.857 135.478 1854 927
N 1461.74 88.8693 124.463 1855 928
N 1461.37 89.8515 124.883 1856 928
N 1342.18 65.16419999999999 118.453 1857 929
N 1342.18 66.04470000000001 119.193 1858 929
N 1342.18 41.9437 139.49 1859 930
N 1342.18 41.4162 140.442 1860 930
N 1413.97 0.960131 145.26 1861 931
N 1413.13 1.23272 144.577 1862 931
N 1342.18 122.68 128.578 1863 932
N 1342.18 121.562 128.413 1864 932
N 1358.89 19.0873 37.8064 1865 933
N 1359.19 18.05 38.1448 1866 933
N 1342.18 67.3789 66.8342 1867 934
N 1342.18 68.3968 67.2846 1868 934
N 1342.18 15.5551 63.0275 1869 935
N 1342.18 15.2842 61.9272 1870 935
N 1357.08 57.7293 89.3484 1871 936
N 1357.82 57.4781 90.1088 1872 936
N 1342.18 40.8103 49.2373 1873 937
N 1342.18 39.8441 49.8052 1874 937
N 1342.18 63.1067 74.5898 1875 938
N 1342.18 61.968 74.70829999999999 1876 938
N 1342.18 80.0222 14.8769 1877 939
N 1342.18 78.95659999999999 15.0786 1878 939
N 1422.58 97.17870000000001 144.245 1879 940
N 1423.64 96.8425 144.3 1880 940
N 1342.18 43.0589 66.74850000000001 1881 941
N 1342.18 43.6613 65.825 1882 941
N 1393.99 129.282 78.7034 1883 942
N 1392.9 129.063 78.62730000000001 1884 942
N 1342.18 71.5976 97.14790000000001 1885 943
N 1342.18 71.3831 98.25409999999999 1886 943
N 1342.18 106.988 69.41079999999999 1887 944
N 1342.18 106.007 68.8673 1888 944
N 1342.18 3.64345 39.3067 1889 945
N 1342.18 4.73445 39.1177 1890 945
N 1412.33 137.31 77.07259999999999 1891 946
N 1412.57 137.262 75.9823 1892 946
N 1578.87 136.105 118.058 1893 947
N 1579.82 136.585 117.657 1894 947
N 1342.18 49.3724 62.817 1895 948
N 1342.18 48.7618 63.7652 1896 948
N 1499.57 108.805 146.574 1897 949
N 1498.85 108.637 145.713 1898 949
N 1663.41 144.145 118.328 1899 950
N 1662.65 143.367 118.549 1900 950
N 1342.18 7.5762 136.179 1901 951
N 1342.18 6.56157 135.833 1902 951
N 1342.18 5.49344 20.4808 1903 952
N 1342.18 6.53369 20.8253 1904 952
N 1435.99 103.106 109.488 1905 953
N 1435.72 103.677 108.559 1906 953
N 1434.14 4.652 75.2962 1907 954
N 1434.94 4.73311 76.0821 1908 954
N 1342.18 85.6634 108.399 1909 955
N 1342.18 86.1323 109.424 1910 955
N 1342.18 65.16459999999999 111.114 1911 956
N 1342.18 65.0791 109.989 1912 956
N 1474.26 82.73909999999999 16.6171 1913 957
N 1474.3 81.64190000000001 16.368 1914 957
N 1355.02 38.3951 12.1423 1915 958
N 1355.89 38.2151 12.8563 1916 958
N 1342.18 81.74809999999999 97.87260000000001 1917 959
N 1342.18 82.03019999999999 98.9624 1918 959
N 1376.3 42.7654 78.13379999999999 1919 960
N 1375.89 43.4471 78.907 1920 960
N 1391.88 92.9175 112.478 1921 961
N 1391.19 92.0692 112.304 1922 961
N 1342.18 90.1176 39.4094 1923 962
N 1342.18 91.2007 39.7046 1924 962
N 1398.77 29.6932 93.7236 1925 963
N 1399.55 29.8311 92.91589999999999 1926 963
N 1536.83 28.6234 77.2174 1927 964
N 1536.14 27.7844 76.9293 1928 964
N 1342.18 109.38 32.7937 1929 965
N 1342.18 108.314 32.6767 1930 965
N 1513 126.427 22.8821 1931 966
N 1512.64 125.507 22.3098 1932 966
N 1515.22 113.772 84.1635 1933 967
N 1515.3 112.739 83.71899999999999 1934 967
N 1417.05 83.9795 122.062 1935 968
N 1416.57 84.9059 121.723 1936 968
N 1581.22 3.17567 54.8936 1937 969
N 1580.96 2.49272 54.057 1938 969
N 1342.18 149.145 25.6875 1939 970
N 1342.18 148.155 25.1735 1940 970
N 1438.42 35.6016 147.379 1941 971
N 1437.56 36.2389 147.033 1942 971
N 1592.33 34.2456 139.436 1943 972
N 1591.29 34.0536 139.073 1944 972
N 1470.58 111.574 94.7045 1945 973
N 1470.08 112.182 95.5059 1946 973
N 1342.18 60.9054 61.774 1947 974
N 1342.18 61.4727 62.7207 1948 974
N 1432.93 0.092765 11.0269 1949 975
N 1433.24 0.41337 9.99991 1950 975
N 1469.5 147.048 69.40649999999999 1951 976
N 1468.53 147.331 69.8847 1952 976
N 1586.79 144.371 5.32168 1953 977
N 1586.96 143.78 4.39731 1954 977
N 1367.88 36.2932 112.907 1955 978
N 1368.57 37.1434 113.217 1956 978
N 1415.4 31.1335 120.153 1957 979
N 1414.54 31.3289 119.482 1958 979
N 1342.18 94.91379999999999 31.8272 1959 980
N 1342.18 94.8814 32.9413 1960 980
N 1362.93 141.2 82.93689999999999 1961 981
N 1363.9 140.643 83.017 1962 981
N 1342.18 7.74514 62.5932 1963 982
N 1342.18 8.374000000000001 61.67 1964 982
N 1342.18 132.914 31.9457 1965 983
N 1342.18 133.716 31.1754 1966 983
N 1342.18 21.533 72.4469 1967 984
N 1342.18 22.6391 72.5107 1968 984
N 1449.5 97.2931 89.5857 1969 985
N 1448.74 97.7226 90.3047 1970 985
N 1342.18 147.825 60.2583 1971 986
N 1342.18 148.934 60.1583 1972 986
N 1342.18 133.026 38.6491 1973 987
N 1342.18 133.518 37.6186 1974 987
N 1407.82 25.8197 124.07 1975 988
N 1408.05 25.1727 123.198 1976 988
N 1397.48 3.68133 62.7326 1977 989
N 1397 3.67078 61.7133 1978 989
N 1350.19 62.4312 35.4362 1979 990
N 1350.73 62.462 34.4449 1980 990
N 1342.18 109.142 99.0916 1981 991
N 1342.18 108.538 98.14790000000001 1982 991
N 1395.46 76.3511 79.6409 1983 992
N 1394.76 75.71559999999999 80.2492 1984 992
N 1381.81 18.095 136.385 1985 993
N 1382.2 18.6736 135.515 1986 993
N 1346.37 63.1245 129.06 1987 994
N 1345.28 63.1512 129.284 1988 994
N 1342.18 80.5146 2.27751 1989 995
N 1342.18 79.4152 2.45838 1990 995
N 1367.79 54.7469 101.652 1991 996
N 1367.83 53.9168 102.397 1992 996
N 1436.25 68.6848 58.8779 1993 997
N 1437.07 68.8565 58.1342 1994 997
N 1342.18 76.5154 51.052 1995 998
N 1342.18 76.42570000000001 49.9614 1996 998
N 1371.63 17.3565 66.6322 1997 999
N 1370.74 17.281 65.9444 1998 999
N 1342.18 33.8297 50.2219 1999 1000
N 1342.18 34.6801 49.5155 2000 1000
N 1342.18 123.22 70.58 2001 1001
N 1342.18 122.111 70.5853 2002 1001
N 1342.18 85.1566 57.2687 2003 1002
N 1342.18 86.26309999999999 57.4818 2004 1002
N 1364.22 71.9785 118.079 2005 1003
N 1363.51 72.688 117.585 2006 1003
N 1342.18 64.7914 78.1109 2007 1004
N 1342.18 64.9838 79.2124 2008 1004
N 1342.18 113.576 113.414 2009 1005
N 1342.18 113.769 112.341 2010 1005
N 1351.48 3.21179 105.921 2011 1006
N 1350.5 3.72007 105.693 2012 1006
N 1342.18 81.69450000000001 30.6171 2013 1007
N 1342.18 81.7467 31.7126 2014 1007
N 1389.16 39.2334 38.7406 2015 1008
N 1390.01 39.9688 38.7841 2016 1008
N 1456.58 6.84285 142.02 2017 1009
N 1455.81 7.64456 142.152 2018 1009
N 1411.81 109.668 111.969 2019 1010
N 1410.89 109.731 111.368 2020 1010
N 1534.82 74.2079 100.879 2021 1011
N 1535.49 75.1045 100.857 2022 1011
N 1342.18 84.53060000000001 14.9993 2023 1012
N 1342.18 84.2906 16.0908 2024 1012
N 1342.18 49.0764 145.361 2025 1013
N 1342.18 48.0206 145.707 2026 1013
N 1342.18 42.372 5.61634 2027 1014
N 1342.18 41.5226 6.3089 2028 1014
N 1411.06 54.0364 66.0772 2029 1015
N 1410.68 53.599 65.1418 2030 1015
N 1342.18 126.093 4.30313 2031 1016
N 1342.18 124.986 4.22033 2032 1016
N 1413.44 95.7175 95.0582 2033 1017
N 1414.31 96.0373 95.68049999999999 2034 1017
N 1357.83 95.62130000000001 44.3111 2035 1018
N 1357.44 96.3445 43.5641 2036 1018
N 1342.18 1.39262 101.644 2037 1019
N 1342.18 0.278641 101.658 2038 1019
N 1342.18 97.7659 141.7 2039 1020
N 1342.18 98.7841 142.11 2040 1020
N 1342.18 126.995 118.891 2041 1021
N 1342.18 126.632 119.93 2042 1021
N 1342.18 100.559 56.7117 2043 1022
N 1342.18 101.041 55.6795 2044 1022
N 1342.18 131.422 114.863 2045 1023
N 1342.18 131.154 115.952 2046 1023
N 1491.3 43.9815 127.816 2047 1024
N 1491.71 43.7799 126.794 2048 1024
N 1471.6 55.4957 6.55439 2049 1025
N 1470.98 55.0379 7.3733 2050 1025
N 1491.12 85.1083 68.8943 2051 1026
N 1491.33 86.14579999999999 68.4888 2052 1026
N 1378.77 53.2915 13.6176 2053 1027
N 1379.6 52.6188 13.3241 2054 1027
N 1443.84 25.0115 65.84690000000001 2055 1028
N 1443.21 24.2344 65.328 2056 1028
N 1342.18 18.9375 64.6977 2057 1029
N 1342.18 18.0365 65.27 2058 1029
N 1342.18 65.4098 146.979 2059 1030
N 1342.18 65.18980000000001 145.858 2060 1030
N 1407.95 44.3983 103.411 2061 1031
N 1409 44.0845 103.503 2062 1031
N 1451.84 129.438 126.035 2063 1032
N 1451.75 128.543 125.381 2064 1032
N 1342.18 36.0406 103.581 2065 1033
N 1342.18 35.1031 104.171 2066 1033
N 1447.24 118.073 51.1809 2067 1034
N 1446.27 117.573 50.9871 2068 1034
N 1358.11 23.6514 98.5583 2069 1035
N 1357.95 22.9049 99.3852 2070 1035
N 1342.18 146.821 55.7155 2071 1036
N 1342.18 147.222 56.7652 2072 1036
N 1342.18 20.3675 134.349 2073 1037
N 1342.18 19.5296 135.131 2074 1037
N 1342.18 52.3364 93.7064 2075 1038
N 1342.18 52.8275 92.7079 2076 1038
N 1342.18 143.648 111.327 2077 1039
N 1342.18 142.634 110.871 2078 1039
N 1416.64 122.233 57.7041 2079 1040
N 1415.96 121.794 56.9318 2080 1040
N 1378.02 52.0221 68.2097 2081 1041
N 1377.71 51.3273 67.39830000000001 2082 1041
N 1342.18 89.8015 109.754 2083 1042
N 1342.18 90.5478 110.52 2084 1042
N 1491.91 33.4726 40.5897 2085 1043
N 1492.71 33.5781 39.8085 2086 1043
N 1372.53 47.3065 124.389 2087 1044
N 1373.56 46.9504 124.163 2088 1044
N 1393.36 115.616 49.7958 2089 1045
N 1394.31 115.287 49.3073 2090 1045
N 1342.18 135.445 75.3212 2091 1046
N 1342.18 135.267 74.2015 2092 1046
N 1364.28 77.4341 61.8602 2093 1047
N 1364.17 77.25369999999999 62.9696 2094 1047
N 1404.93 91.1713 25.471 2095 1048
N 1405.91 90.6153 25.3526 2096 1048
N 1342.18 101.689 3.17947 2097 1049
N 1342.18 100.661 3.6313 2098 1049
N 1592.03 109.238 60.2468 2099 1050
N 1592.89 109.9 60.5319 2100 1050
N 1342.18 148.449 148.466 2101 1051
N 1342.18 148.202 147.379 2102 1051
N 1374.26 65.3318 21.7407 2103 1052
N 1374.4 66.0155 20.8649 2104 1052
N 1376.75 125.945 50.6787 2105 1053
N 1376.83 125.676 51.7254 2106 1053
N 1377.79 136.958 1.5763 2107 1054
N 1377.3 137.842 2.00486 2108 1054
N 1605.84 72.7701 24.2521 2109 1055
N 1606.19 72.4405 25.2587 2110 1055
N 1528.3 61.6775 136.5 2111 1056
N 1528.91 61.766 135.597 2112 1056
N 1342.18 133.331 103.279 2113 1057
N 1342.18 134.427 103.38 2114 1057
N 1371.43 6.42144 13.7702 2115 1058
N 1371.69 7.07038 14.6552 2116 1058
N 1342.18 132.643 56.4484 2117 1059
N 1342.18 132.265 57.5372 2118 1059
N 1342.18 109.965 44.3324 2119 1060
N 1342.18 108.968 44.832 2120 1060
N 1404.04 62.5341 134.381 2121 1061
N 1403.39 62.4002 135.311 2122 1061
N 1352.72 23.1183 19.3169 2123 1062
N 1353.48 22.8016 20.088 2124 1062
N 1360.71 30.3025 119.329 2125 1063
N 1360.02 30.8214 120.041 2126 1063
N 1537.81 134.651 49.2299 2127 1064
N 1538.02 133.613 48.8831 2128 1064
N 1342.18 33.5475 77.35769999999999 2129 1065
N 1342.18 33.6852 76.2637 2130 1065
N 1529.9 143.283 41.0826 2131 1066
N 1530.5 142.807 41.9013 2132 1066
N 1342.18 141.204 41.7397 2133 1067
N 1342.18 141.586 40.6933 2134 1067
N 1374.65 13.4144 79.3913 2135 1068
N 1375.07 12.6586 80.11279999999999 2136 1068
N 1342.18 43.9856 62.0514 2137 1069
N 1342.18 44.1941 60.9786 2138 1069
N 1344.88 83.6237 25.6463 2139 1070
N 1345.34 84.45699999999999 25.031 2140 1070
N 1342.18 96.7603 29.5394 2141 1071
N 1342.18 97.8737 29.5985 2142 1071
N 1381.59 65.1631 99.0232 2143 1072
N 1382.01 65.7869 98.2033 2144 1072
N 1342.18 84.7929 84.3182 2145 1073
N 1342.18 84.56619999999999 83.2488 2146 1073
N 1478.12 91.3668 98.206 2147 1074
N 1477.65 92.13379999999999 98.8493 2148 1074
N 1383.78 25.5527 100.163 2149 1075
N 1383.63 24.6765 100.833 2150 1075
N 1342.18 55.1497 2.23042 2151 1076
N 1342.18 56.0524 2.90572 2152 1076
N 1398.72 42.0004 26.5792 2153 1077
N 1397.83 42.6862 26.6952 2154 1077
N 1381.54 133.494 119.235 2155 1078
N 1381.09 134.256 118.566 2156 1078
N 1463.91 105.104 84.5818 2157 1079
N 1463.18 105.879 84.8867 2158 1079
N 1448.04 40.0217 69.4545 2159 1080
N 1447.56 40.7909 68.7987 2160 1080
N 1567.31 1.59564 88.07080000000001 2161 1081
N 1566.62 1.77604 88.9486 2162 1081
N 1449.57 28.0496 118.048 2163 1082
N 1449.26 27.6674 119.033 2164 1082
N 1351.29 113.612 2.9179 2165 1083
N 1352.28 113.657 2.38315 2166 1083
N 1371.45 22.4573 5.56797 2167 1084
N 1372.19 22.5636 4.72062 2168 1084
N 1342.18 110.134 125.857 2169 1085
N 1342.18 109.438 124.987 2170 1085
N 1487.53 46.9535 47.2253 2171 1086
N 1487.15 48.0184 47.112 2172 1086
N 1353.54 105.898 100.517 2173 1087
N 1354.2 106.309 99.7145 2174 1087
N 1342.18 35.2985 144.956 2175 1088
N 1342.18 36.3882 144.768 2176 1088
N 1369.11 20.7933 54.0817 2177 1089
N 1369.69 20.0578 53.461 2178 1089
N 1558.36 138.07 26.2818 2179 1090
N 1557.31 137.927 26.6332 2180 1090
N 1342.18 8.448829999999999 101.542 2181 1091
N 1342.18 8.80289 102.591 2182 1091
N 1342.18 110.201 20.5106 2183 1092
N 1342.18 111.066 19.7349 2184 1092
N 1456.82 110.03 70.44029999999999 2185 1093
N 1456.09 109.96 69.59269999999999 2186 1093
N 1342.18 12.5158 105.741 2187 1094
N 1342.18 11.4761 105.989 2188 1094
N 1342.18 29.6871 93.50709999999999 2189 1095
N 1342.18 28.5861 93.72020000000001 2190 1095
N 1342.18 141.265 25.5658 2191 1096
N 1342.18 141.271 26.6545 2192 1096
N 1400.12 58.8217 120.047 2193 1097
N 1400.07 59.7892 120.603 2194 1097
N 1416.3 67.663 19.4305 2195 1098
N 1417.18 66.9802 19.3539 2196 1098
N 1500.9 4.37306 93.0921 2197 1099
N 1500.95 4.24989 94.2231 2198 1099
N 1700.29 120.985 71.8079 2199 1100
N 1701.33 121.376 71.6266 2200 1100
N 1468.59 26.423 63.3401 2201 1101
N 1468.29 27.4895 63.4532 2202 1101
N 1569.83 104.143 33.6123 2203 1102
N 1570.69 103.769 34.2007 2204 1102
N 1363.29 44.0336 132.872 2205 1103
N 1363.91 44.0399 131.933 2206 1103
N 1556.92 146.793 84.07550000000001 2207 1104
N 1555.99 146.426 84.6033 2208 1104
N 1342.18 122.297 139.87 2209 1105
N 1342.18 123.076 140.682 2210 1105
N 1342.18 120.457 80.1007 2211 1106
N 1342.18 121.203 80.8721 2212 1106
N 1535.86 60.5934 119.888 2213 1107
N 1536.74 61.0715 119.385 2214 1107
N 1428.52 144.73 100.974 2215 1108
N 1429.32 145.352 101.435 2216 1108
N 1342.18 121.559 40.356 2217 1109
N 1342.18 120.724 41.1666 2218 1109
N 1342.18 28.9394 142.672 2219 1110
N 1342.18 28.1451 141.936 2220 1110
N 1342.18 39.5494 144.284 2221 1111
N 1342.18 39.5414 143.142 2222 1111
N 1357.52 113.597 140.301 2223 1112
N 1357.89 114.461 139.692 2224 1112
N 1342.18 149.41 50.1887 2225 1113
N 1342.18 149.616 51.2346 2226 1113
N 1342.18 26.2469 80.4479 2227 1114
N 1342.18 26.9012 79.5509 2228 1114
N 1423.34 0.796286 131.359 2229 1115
N 1424.41 1.05875 131.314 2230 1115
N 1432.65 131.321 4.978 2231 1116
N 1432.25 131.119 5.99762 2232 1116
N 1404.78 127.803 121.433 2233 1117
N 1404.14 128.449 122.101 2234 1117
N 1410.9 12.9661 77.72199999999999 2235 1118
N 1411.21 11.9343 77.3656 2236 1118
N 1480.22 82.6938 33.6889 2237 1119
N 1480.25 83.3612 34.5705 2238 1119
N 1362.73 113.864 64.57689999999999 2239 1120
N 1363.53 114.239 65.26909999999999 2240 1120
N 1734.89 59.1211 130.934 2241 1121
N 1735.96 59.3364 131.214 2242 1121
N 1342.18 74.4915 81.0074 2243 1122
N 1342.18 75.4143 80.3479 2244 1122
N 1454.88 30.5144 33.5423 2245 1123
N 1453.96 31.1281 33.7564 2246 1123
N 1342.18 146.396 83.7617 2247 1124
N 1342.18 146.094 84.8623 2248 1124
N 1342.18 136.565 123.007 2249 1125
N 1342.18 137.43 123.71 2250 1125
N 1342.18 16.6434 94.1352 2251 1126
N 1342.18 17.7752 94.2769 2252 1126
N 1478.89 36.7479 59.3352 2253 1127
N 1479.52 37.0683 58.4539 2254 1127
N 1342.18 81.2422 23.9056 2255 1128
N 1342.18 82.20829999999999 23.3827 2256 1128
N 1418.17 86.5329 18.8982 2257 1129
N 1417.8 87.2497 19.7052 2258 1129
N 1342.18 144.759 100.07 2259 1130
N 1342.18 145.75 100.588 2260 1130
N 1533.62 0.420924 99.97199999999999 2261 1131
N 1534.18 1.25531 100.471 2262 1131
N 1342.18 99.68089999999999 80.4877 2263 1132
N 1342.18 98.8108 79.7533 2264 1132
N 1342.18 143.346 88.1384 2265 1133
N 1342.18 142.239 88.0138 2266 1133
N 1342.18 125.818 128.248 2267 1134
N 1342.18 126.93 128.183 2268 1134
N 1342.18 91.0505 0.49257 2269 1135
N 1342.18 92.1879 0.450957 2270 1135
N 1342.18 97.09099999999999 122.429 2271 1136
N 1342.18 96.5889 123.359 2272 1136
N 1342.18 145.152 43.4434 2273 1137
N 1342.18 144.398 42.6452 2274 1137
N 1490.11 18.6181 82.90389999999999 2275 1138
N 1489.89 19.1182 81.9216 2276 1138
N 1497.68 136.147 65.9922 2277 1139
N 1498.47 136.464 66.7055 2278 1139
N 1354.52 74.7247 71.35769999999999 2279 1140
N 1354.94 75.4804 70.634 2280 1140
N 1421.6 114.688 25.7387 2281 1141
N 1421.3 114.508 24.6836 2282 1141
N 1342.18 75.1237 1.02883 2283 1142
N 1342.18 75.9465 1.74593 2284 1142
N 1342.18 55.1827 128.548 2285 1143
N 1342.18 54.1109 128.127 2286 1143
N 1410.46 49.2148 95.63160000000001 2287 1144
N 1410.12 48.9485 94.5992 2288 1144
N 1342.18 102.127 118.778 2289 1145
N 1342.18 101.358 118.002 2290 1145
N 1495.69 103.465 30.6681 2291 1146
N 1496.59 104.014 30.2822 2292 1146
N 1342.18 117.048 57.1558 2293 1147
N 1342.18 116.783 56.0848 2294 1147
N 1417.51 38.3182 84.99169999999999 2295 1148
N 1417.04 37.3411 85.3145 2296 1148
N 1374.31 122.872 112.932 2297 1149
N 1375.19 123.275 112.343 2298 1149
N 1458.97 69.8612 53.6465 2299 1150
N 1459.63 69.6704 54.5278 2300 1150
N 1342.18 48.4131 140.409 2301 1151
N 1342.18 48.614 141.511 2302 1151
N 1342.18 79.81950000000001 27.0673 2303 1152
N 1342.18 80.9007 27.1663 2304 1152
N 1342.18 38.6381 138.604 2305 1153
N 1342.18 38.5796 137.495 2306 1153
N 1380.71 92.9863 98.7017 2307 1154
N 1380.64 91.9385 99.06480000000001 2308 1154
N 1376.32 127.505 71.31570000000001 2309 1155
N 1375.29 127.156 71.042 2310 1155
N 1641.72 43.7295 44.5382 2311 1156
N 1641.23 42.8001 44.9694 2312 1156
N 1342.18 82.10169999999999 19.437 2313 1157
N 1342.18 81.61920000000001 18.4245 2314 1157
N 1342.18 25.7811 114.115 2315 1158
N 1342.18 26.5818 114.904 2316 1158
N 1374.65 143.802 28.9167 2317 1159
N 1374.1 143.219 28.1421 2318 1159
N 1835.1 78.4308 62.7489 2319 1160
N 1835.51 79.31399999999999 62.1875 2320 1160
N 1427.25 0.185424 0.481185 2321 1161
N 1427.79 149.797 149.581 2322 1161
N 1406.18 132.941 60.6961 2323 1162
N 1407.09 132.533 60.2241 2324 1162
N 1342.18 90.9198 90.2899 2325 1163
N 1342.18 91.1157 89.167 2326 1163
N 1516.3 74.0247 114.351 2327 1164
N 1517.2 74.60120000000001 113.984 2328 1164
N 1410.36 69.9794 53.556 2329 1165
N 1411.39 70.0736 54.0058 2330 1165
N 1392.62 109.259 8.175750000000001 2331 1166
N 1392.1 108.499 7.51428 2332 1166
N 1342.18 102.523 69.7471 2333 1167
N 1342.18 101.545 69.1431 2334 1167
N 1365.16 111.064 16.501 2335 1168
N 1364.86 112.152 16.3927 2336 1168
N 1342.18 10.6109 89.7046 2337 1169
N 1342.18 11.625 89.19670000000001 2338 1169
N 1497.24 69.4516 141.461 2339 1170
N 1497.57 68.50239999999999 140.973 2340 1170
N 1401.61 118.392 78.0219 2341 1171
N 1401.59 118.863 77.0164 2342 1171
N 1342.18 120.468 73.3374 2343 1172
N 1342.18 119.33 73.4122 2344 1172
N 1342.18 68.9935 46.4643 2345 1173
N 1342.18 70.01009999999999 47.0008 2346 1173
N 1601.57 69.81059999999999 147.799 2347 1174
N 1601.36 70.6241 147.049 2348 1174
N 1342.18 11.4326 71.51009999999999 2349 1175
N 1342.18 11.152 70.4195 2350 1175
N 1560.93 22.1475 129.158 2351 1176
N 1561.28 22.3144 130.207 2352 1176
N 1342.18 68.3571 100.96 2353 1177
N 1342.18 68.6803 99.90560000000001 2354 1177
N 1418.26 87.1476 44.2128 2355 1178
N 1417.26 86.65470000000001 44.2712 2356 1178
N 1691.14 46.3723 23.346 2357 1179
N 1690.74 47.2202 22.7427 2358 1179
N 1342.18 131.019 124.972 2359 1180
N 1342.18 131.816 125.769 2360 1180
N 1378.26 44.8073 85.7144 2361 1181
N 1378.37 43.847 86.30880000000001 2362 1181
N 1493.56 142.874 72.3058 2363 1182
N 1492.71 142.307 71.8437 2364 1182
N 1488.77 34.5356 60.0624 2365 1183
N 1488.47 33.929 59.1613 2366 1183
N 1518.52 98.1125 79.86960000000001 2367 1184
N 1517.45 98.2234 80.2009 2368 1184
N 1534.47 91.90470000000001 146.741 2369 1185
N 1535.14 92.77419999999999 146.49 2370 1185
N 1442.12 39.0387 19.147 2371 1186
N 1441.2 39.6539 18.929 2372 1186
N 1359.81 139.878 48.1507 2373 1187
N 1359.09 139.424 47.4142 2374 1187
N 1378.27 146.268 63.3662 2375 1188
N 1378.25 147.254 63.9228 2376 1188
N 1466.7 139.753 30.8441 2377 1189
N 1466.06 139.482 31.7135 2378 1189
N 1405.55 149.72 89.2606 2379 1190
N 1404.57 149.784 88.6788 2380 1190
N 1378 122.219 40.6098 2381 1191
N 1378.89 121.533 40.6135 2382 1191
N 1602.66 47.2308 49.7172 2383 1192
N 1602.13 47.2082 48.738 2384 1192
N 1651.95 96.4645 31.3916 2385 1193
N 1651.86 97.5842 31.4109 2386 1193
N 1524.9 101.686 97.5044 2387 1194
N 1524.38 102.116 98.387 2388 1194
N 1366.82 123.366 38.6843 2389 1195
N 1366.3 123.925 39.4998 2390 1195
N 1364.82 52.6996 4.18173 2391 1196
N 1363.86 52.7766 4.76852 2392 1196
N 1461.7 103.733 81.7607 2393 1197
N 1461.03 103.154 82.4485 2394 1197
N 1373.29 83.5731 32.5247 2395 1198
N 1372.73 84.06270000000001 33.3301 2396 1198
N 1375.24 137.193 70.0365 2397 1199
N 1374.25 136.842 69.56310000000001 2398 1199
N 1426.37 4.29274 102.453 2399 1200
N 1426.92 3.9467 103.378 2400 1200
N 1425.18 139.956 116.002 2401 1201
N 1425.12 140.825 115.302 2402 1201
N 1408.96 16.361 111.462 2403 1202
N 1408.63 16.7229 110.444 2404 1202
N 1420.72 147.008 30.8413 2405 1203
N 1420.98 146.636 31.8487 2406 1203
N 1342.18 88.08629999999999 14.9488 2407 1204
N 1342.18 87.6538 13.9554 2408 1204
N 1565.59 116.587 4.25917 2409 1205
N 1565.6 115.545 4.6509 2410 1205
N 1342.18 149.855 114.73 2411 1206
N 1342.18 0.723629 114.045 2412 1206
N 1342.18 64.4357 128.283 2413 1207
N 1342.18 64.4308 127.22 2414 1207
N 1659.79 9.12236 133.719 2415 1208
N 1659.88 8.26792 133.003 2416 1208
N 1368.79 111.585 141.575 2417 1209
N 1369.3 111.757 140.595 2418 1209
N 1424.66 88.07899999999999 9.540480000000001 2419 1210
N 1423.89 87.502 10.1237 2420 1210
N 1481.39 103.415 7.48723 2421 1211
N 1482.06 104.22 7.02821 2422 1211
N 1342.18 25.9014 38.0016 2423 1212
N 1342.18 25.7217 36.9201 2424 1212
N 1417.65 69.88800000000001 36.4811 2425 1213
N 1417.97 70.83459999999999 35.9624 2426 1213
N 1538.63 55.9035 97.878 2427 1214
N 1537.61 56.2992 97.76220000000001 2428 1214
N 1342.18 64.8331 64.9019 2429 1215
N 1342.18 64.0474 65.6052 2430 1215
N 1342.18 18.2248 101.334 2431 1216
N 1342.18 19.3448 101.361 2432 1216
N 1342.18 12.8924 149.162 2433 1217
N 1342.18 12.0206 149.864 2434 1217
N 1402.97 106.782 58.388 2435 1218
N 1401.95 107.15 58.6276 2436 1218
N 1422.57 89.5971 98.93729999999999 2437 1219
N 1422.24 89.5523 97.875 2438 1219
N 1342.18 115.241 75.24299999999999 2439 1220
N 1342.18 115.085 74.1491 2440 1220
N 1342.18 131.734 15.6106 2441 1221
N 1342.18 131.735 14.5001 2442 1221
N 1604.82 27.0132 84.4131 2443 1222
N 1604.76 28.1408 84.59350000000001 2444 1222
N 1348.76 34.9312 64.9162 2445 1223
N 1348.4 35.312 63.933 2446 1223
N 1413.31 38.5694 63.2925 2447 1224
N 1412.59 39.2726 62.768 2448 1224
N 1428.25 130.741 27.3341 2449 1225
N 1427.24 130.521 26.8909 2450 1225
N 1410.88 64.82850000000001 88.00069999999999 2451 1226
N 1410.75 64.88809999999999 86.89449999999999 2452 1226
N 1342.18 39.558 122.277 2453 1227
N 1342.18 40.6539 122.581 2454 1227
N 1342.18 60.2259 85.6777 2455 1228
N 1342.18 61.303 86.1118 2456 1228
N 1410.54 106.001 90.4328 2457 1229
N 1410.81 107.084 90.3643 2458 1229
N 1342.18 125.441 86.3707 2459 1230
N 1342.18 126.545 86.6212 2460 1230
N 1429.57 55.6152 69.38209999999999 2461 1231
N 1429.07 54.9233 70.1024 2462 1231
N 1342.18 83.1597 90.8321 2463 1232
N 1342.18 83.0324 89.6922 2464 1232
N 1481.25 44.7225 120.322 2465 1233
N 1481.34 44.6228 119.213 2466 1233
N 1527.06 39.7913 8.71584 2467 1234
N 1526.03 39.4268 8.44843 2468 1234
N 1577.23 48.0877 139.098 2469 1235
N 1577.69 49.0738 139.406 2470 1235
N 1342.18 134.295 9.36281 2471 1236
N 1342.18 133.422 10.0652 2472 1236
N 1506.18 5.1742 72.83410000000001 2473 1237
N 1506.3 6.24901 73.00060000000001 2474 1237
N 1342.18 149.211 10.9686 2475 1238
N 1342.18 148.768 9.929169999999999 2476 1238
N 1441.96 112.597 119.401 2477 1239
N 1441.1 112.745 118.692 2478 1239
N 1357.5 38.7683 3.53578 2479 1240
N 1358.55 38.4034 3.44939 2480 1240
N 1342.18 27.5866 110.431 2481 1241
N 1342.18 28.1046 111.431 2482 1241
N 1342.18 82.26090000000001 36.0848 2483 1242
N 1342.18 83.01900000000001 36.849 2484 1242
N 1448.96 68.6202 26.2823 2485 1243
N 1448.44 69.00239999999999 27.1692 2486 1243
N 1549.01 108.34 10.4104 2487 1244
N 1548.25 108.334 11.2171 2488 1244
N 1342.18 54.3169 26.5151 2489 1245
N 1342.18 55.391 26.7288 2490 1245
N 1396.29 33.0295 135.792 2491 1246
N 1395.64 32.331 136.35 2492 1246
N 1342.18 132.63 135.107 2493 1247
N 1342.18 131.513 135.19 2494 1247
N 1342.18 83.3586 103.321 2495 1248
N 1342.18 82.42230000000001 102.733 2496 1248
N 1368.61 77.003 120.25 2497 1249
N 1367.82 77.72 120.606 2498 1249
N 1342.18 98.37090000000001 128.89 2499 1250
N 1342.18 99.1374 129.711 2500 1250
N 1342.18 43.8974 84.39619999999999 2501 1251
N 1342.18 42.8242 84.71250000000001 2502 1251
N 1357.71 144.57 115.171 2503 1252
N 1357.63 145.483 114.547 2504 1252
N 1366.72 116.764 136.976 2505 1253
N 1367.3 115.846 137.249 2506 1253
N 1568.16 137.324 113.382 2507 1254
N 1568.11 138.436 113.463 2508 1254
N 1370.7 99.3359 105.313 2509 1255
N 1371.3 99.8749 104.525 2510 1255
N 1440.34 106.713 5.49872 2511 1256
N 1439.87 105.78 5.91242 2512 1256
N 1500.58 86.2482 63.8758 2513 1257
N 1500.92 85.983 64.9188 2514 1257
N 1382.13 33.3114 88.77379999999999 2515 1258
N 1382.83 32.5112 89.1544 2516 1258
N 1385.76 28.1432 89.8424 2517 1259
N 1385.23 29.1195 89.6268 2518 1259
N 1460.4 126.726 131.22 2519 1260
N 1459.31 126.512 131.232 2520 1260
N 1342.18 25.7925 89.55070000000001 2521 1261
N 1342.18 26.8509 89.16719999999999 2522 1261
N 1342.18 13.2983 94.0771 2523 1262
N 1342.18 12.4861 94.8583 2524 1262
N 1435.34 26.4442 31.0813 2525 1263
N 1434.78 25.5481 30.664 2526 1263
N 1342.18 93.47839999999999 132.784 2527 1264
N 1342.18 93.58759999999999 133.86 2528 1264
N 1371.14 7.65968 144.901 2529 1265
N 1371.52 7.06141 144.05 2530 1265
N 1375.32 108.092 97.9502 2531 1266
N 1375.41 108.149 96.8297 2532 1266
N 1489.98 35.2284 83.00109999999999 2533 1267
N 1489.34 35.5169 82.1207 2534 1267
N 1345.7 71.9507 121.304 2535 1268
N 1345.3 72.6091 122.109 2536 1268
N 1417.08 107.26 54.1278 2537 1269
N 1416.33 108.087 54.2001 2538 1269
N 1600.23 127.581 72.8537 2539 1270
N 1599.46 128.379 73.03530000000001 2540 1270
N 1772.26 144.189 14.7245 2541 1271
N 1772.17 144.158 15.8609 2542 1271
N 1347.72 29.7609 21.0868 2543 1272
N 1348.43 28.9268 20.931 2544 1272
N 1499.29 100.049 135.597 2545 1273
N 1499.02 99.3459 134.747 2546 1273
N 1342.18 99.896 113.102 2547 1274
N 1342.18 98.8092 113.348 2548 1274
N 1342.18 129.382 24.4149 2549 1275
N 1342.18 129.217 25.5408 2550 1275
N 1443.54 15.0696 140.491 2551 1276
N 1444.51 14.5495 140.739 2552 1276
N 1429.57 21.3225 146.026 2553 1277
N 1430.69 21.3417 146.081 2554 1277
N 1381.91 36.894 64.4941 2555 1278
N 1381.14 37.1474 65.248 2556 1278
N 1342.18 75.5074 41.7472 2557 1279
N 1342.18 74.5097 42.1878 2558 1279
N 1365.94 25.4795 143.44 2559 1280
N 1365.33 24.597 143.768 2560 1280
N 1342.18 84.666 11.815 2561 1281
N 1342.18 84.1593 10.8472 2562 1281
N 1490.9 146.216 112.532 2563 1282
N 1491.82 145.643 112.817 2564 1282
N 1342.18 139.583 138.466 2565 1283
N 1342.18 139.878 137.374 2566 1283
N 1441.29 149.396 55.6347 2567 1284
N 1440.82 0.230168 56.2082 2568 1284
N 1342.18 128.123 110.363 2569 1285
N 1342.18 128.759 111.26 2570 1285
N 1374.64 9.50562 6.35904 2571 1286
N 1373.93 10.0071 5.66503 2572 1286
N 1731.67 53.6053 143.685 2573 1287
N 1732.14 52.7127 144.178 2574 1287
N 1548.35 133.901 148.873 2575 1288
N 1548.4 134.364 147.851 2576 1288
N 1424.11 77.6396 24.5927 2577 1289
N 1423.15 77.9859 25.0494 2578 1289
N 1392.66 5.45138 78.05710000000001 2579 1290
N 1392.42 5.2017 79.12820000000001 2580 1290
N 1404.03 27.6687 90.3228 2581 1291
N 1404.56 28.5847 89.9654 2582 1291
N 1451.9 29.6727 132.143 2583 1292
N 1451.26 29.748 133.051 2584 1292
N 1459.35 84.42529999999999 123.036 2585 1293
N 1458.98 83.3664 123.038 2586 1293
N 1342.18 109.317 93.3104 2587 1294
N 1342.18 110.051 92.4795 2588 1294
N 1342.18 97.52979999999999 15.209 2589 1295
N 1342.18 98.3831 15.8908 2590 1295
N 1525.32 42.8806 54.0732 2591 1296
N 1524.61 42.999 54.9436 2592 1296
N 1342.18 25.4856 128.165 2593 1297
N 1342.18 26.183 129.068 2594 1297
N 1377.78 13.2139 124.763 2595 1298
N 1377.95 13.9973 123.974 2596 1298
N 1377.29 120.654 80.16630000000001 2597 1299
N 1377.07 121.738 79.9885 2598 1299
N 1445.35 16.8429 113.299 2599 1300
N 1446.47 16.7815 113.32 2600 1300
N 1526.04 144.338 84.3852 2601 1301
N 1525.45 143.593 84.9768 2602 1301
N 1342.18 134.492 79.86969999999999 2603 1302
N 1342.18 135.16 80.76300000000001 2604 1302
N 1431.35 27.4607 122.888 2605 1303
N 1431.62 26.5148 122.357 2606 1303
N 1342.18 29.5285 20.197 2607 1304
N 1342.18 28.4314 19.9238 2608 1304
N 1342.18 74.4627 120.246 2609 1305
N 1342.18 75.4914 120.727 2610 1305
N 1589.28 15.566 30.2608 2611 1306
N 1588.63 16.1123 31.0053 2612 1306
N 1545.41 131.142 140.049 2613 1307
N 1544.9 131.997 140.554 2614 1307
N 1342.18 102.116 104.055 2615 1308
N 1342.18 101.813 102.992 2616 1308
N 1412.16 53.9882 106.855 2617 1309
N 1413.24 53.946 107.157 2618 1309
N 1388.74 34.8557 17.336 2619 1310
N 1387.74 34.4165 17.0858 2620 1310
N 1342.18 28.7046 51.3763 2621 1311
N 1342.18 28.6243 52.5086 2622 1311
N 1375.45 135.429 89.92740000000001 2623 1312
N 1375.3 135.719 88.85339999999999 2624 1312
N 1342.18 83.7071 71.69799999999999 2625 1313
N 1342.18 82.59910000000001 71.83329999999999 2626 1313
N 1404.93 18.3051 120.121 2627 1314
N 1405.21 18.0361 119.087 2628 1314
N 1444.55 53.8214 60.0844 2629 1315
N 1444.67 54.9172 59.9043 2630 1315
N 1468.66 93.4481 102.56 2631 1316
N 1469.21 93.3686 103.552 2632 1316
N 1342.18 14.3962 117.201 2633 1317
N 1342.18 15.2445 117.948 2634 1317
N 1388.19 115.198 25.5153 2635 1318
N 1388.66 116.125 25.9882 2636 1318
N 1436.08 83.78189999999999 5.89185 2637 1319
N 1436.1 84.2384 4.86173 2638 1319
N 1342.18 99.0239 91.633 2639 1320
N 1342.18 98.1464 92.3156 2640 1320
N 1359.71 51.1211 95.75490000000001 2641 1321
N 1359.75 50.532 94.7945 2642 1321
N 1667.44 47.4323 45.777 2643 1322
N 1666.82 48.1507 45.1938 2644 1322
N 1428.94 95.1798 74.065 2645 1323
N 1428.13 95.0097 73.3296 2646 1323
N 1342.18 43.1496 96.6109 2647 1324
N 1342.18 42.1197 96.1426 2648 1324
N 1391.92 22.3177 98.30880000000001 2649 1325
N 1391.49 22.7698 97.3935 2650 1325
N 1342.18 3.78653 108.626 2651 1326
N 1342.18 3.32817 109.657 2652 1326
N 1342.18 54.0911 65.724 2653 1327
N 1342.18 53.0303 65.9299 2654 1327
N 1342.18 11.039 141.011 2655 1328
N 1342.18 12.0287 140.491 2656 1328
N 1668.58 112.731 143.148 2657 1329
N 1667.97 111.83 142.913 2658 1329
N 1342.18 38.4021 41.4705 2659 1330
N 1342.18 38.0479 42.5092 2660 1330
N 1434.58 46.5097 86.38330000000001 2661 1331
N 1435.42 45.7705 86.392 2662 1331
N 1369.94 7.52033 147.584 2663 1332
N 1369.2 6.72007 147.298 2664 1332
N 1499.16 89.1645 2.53598 2665 1333
N 1498.47 88.8822 1.69906 2666 1333
N 1413.97 45.7072 88.0534 2667 1334
N 1413.24 46.5096 87.7518 2668 1334
N 1430.37 64.1387 30.1992 2669 1335
N 1430.4 63.393 31.0237 2670 1335
N 1421.58 18.7974 106.938 2671 1336
N 1421.05 19.0097 107.902 2672 1336
N 1379.02 59.5414 51.6321 2673 1337
N 1378.15 59.442 52.3269 2674 1337
N 1365.44 78.7317 4.35174 2675 1338
N 1365.22 77.6472 4.54437 2676 1338
N 1375.27 51.5148 98.68089999999999 2677 1339
N 1374.38 51.5034 99.3648 2678 1339
N 1423.62 1.65097 25.9183 2679 1340
N 1422.88 2.41297 25.588 2680 1340
N 1432.77 63.9325 56.7344 2681 1341
N 1432.87 63.1092 55.9823 2682 1341
N 1659.47 109.966 143.625 2683 1342
N 1660.39 110.131 144.226 2684 1342
N 1597.25 6.49737 31.0873 2685 1343
N 1597.37 6.04198 30.0765 2686 1343
N 1397.07 71.7205 103.664 2687 1344
N 1397.45 72.0017 104.652 2688 1344
N 1342.18 113.825 108.86 2689 1345
N 1342.18 112.844 109.432 2690 1345
N 1403.1 62.7388 145.937 2691 1346
N 1402.54 62.5224 144.997 2692 1346
N 1342.18 40.2295 28.2085 2693 1347
N 1342.18 41.337 28.3842 2694 1347
N 1342.18 3.19525 51.2391 2695 1348
N 1342.18 3.53961 52.2999 2696 1348
N 1393.88 76.8905 26.9988 2697 1349
N 1394.84 77.3104 26.652 2698 1349
N 1552.96 23.0793 15.7174 2699 1350
N 1551.87 22.9154 15.8594 2700 1350
N 1342.18 60.543 104.866 2701 1351
N 1342.18 61.1461 105.806 2702 1351
N 1401.43 139.698 19.5207 2703 1352
N 1402.11 139.962 18.6616 2704 1352
N 1436.43 133.168 149.762 2705 1353
N 1436.08 133.133 148.717 2706 1353
N 1345.94 3.72417 48.1813 2707 1354
N 1346.11 4.31086 49.125 2708 1354
N 1342.18 35.19 116.005 2709 1355
N 1342.18 35.2687 114.906 2710 1355
N 1421.33 128.176 36.6005 2711 1356
N 1420.97 128.123 37.661 2712 1356
N 1342.18 46.3299 1.36878 2713 1357
N 1342.18 45.65 2.2308 2714 1357
N 1363.92 48.8285 73.3544 2715 1358
N 1364.33 48.7077 74.4055 2716 1358
N 1342.18 94.8099 42.9213 2717 1359
N 1342.18 94.2808 41.9674 2718 1359
N 1498.23 19.6316 112.403 2719 1360
N 1497.49 18.8083 112.205 2720 1360
N 1435.19 77.53270000000001 36.7896 2721 1361
N 1434.73 77.82810000000001 37.7802 2722 1361
N 1451.65 22.2535 51.4716 2723 1362
N 1451.86 22.8632 52.3681 2724 1362
N 1342.18 126.39 39.2819 2725 1363
N 1342.18 126.67 40.381 2726 1363
N 1351.41 135.865 135.939 2727 1364
N 1351.68 135.685 134.882 2728 1364
N 1435.11 11.7704 26.0832 2729 1365
N 1434.98 11.4849 24.9997 2730 1365
N 1395.39 50.4173 62.5774 2731 1366
N 1395.22 49.4396 63.1158 2732 1366
N 1394.72 30.386 2.61144 2733 1367
N 1394.16 31.3412 2.58072 2734 1367
N 1385.83 13.3708 88.8124 2735 1368
N 1386.93 13.5558 88.73520000000001 2736 1368
N 1454.03 140.323 131.569 2737 1369
N 1453.53 141.306 131.336 2738 1369
N 1400.12 64.5527 41.6719 2739 1370
N 1400.52 65.3246 40.9516 2740 1370
N 1415.46 34.8417 57.9678 2741 1371
N 1415.69 35.3391 58.9398 2742 1371
N 1600.99 18.0797 97.4516 2743 1372
N 1600.76 17.7421 98.5166 2744 1372
N 1342.18 59.9065 45.2779 2745 1373
N 1342.18 58.878 44.784 2746 1373
N 1577.11 43.66 103.031 2747 1374
N 1577.18 44.565 103.713 2748 1374
N 1342.18 69.0895 107.702 2749 1375
N 1342.18 70.1786 107.771 2750 1375
N 1342.18 14.968 7.34075 2751 1376
N 1342.18 16.0953 7.37625 2752 1376
N 1389.98 147.478 15.901 2753 1377
N 1389.61 148.433 16.3757 2754 1377
N 1459.15 34.5737 11.6567 2755 1378
N 1458.67 35.5773 11.5869 2756 1378
N 1440.85 1.62293 108.559 2757 1379
N 1440.43 2.60214 108.878 2758 1379
N 1390.5 112.875 71.59869999999999 2759 1380
N 1389.57 113.378 71.98260000000001 2760 1380
N 1554.19 102.863 1.52376 2761 1381
N 1554.57 101.806 1.57899 2762 1381
N 1409.86 18.8708 148.121 2763 1382
N 1409.63 19.1468 147.079 2764 1382
N 1347.17 6.00704 88.9648 2765 1383
N 1347.2 5.8032 90.0663 2766 1383
N 1444.76 68.1687 138.231 2767 1384
N 1445.72 68.5218 137.797 2768 1384
N 1600.46 149.464 17.1141 2769 1385
N 1601.47 149.719 17.5109 2770 1385
N 1342.18 112.256 10.7315 2771 1386
N 1342.18 111.3 11.2861 2772 1386
N 1401.69 78.2183 15.2241 2773 1387
N 1401.46 77.6194 14.322 2774 1387
N 1575.44 63.829 137.73 2775 1388
N 1574.61 63.2416 137.273 2776 1388
N 1472.44 90.26730000000001 25.6502 2777 1389
N 1473.51 90.6194 25.654 2778 1389
N 1342.18 1.28168 71.4903 2779 1390
N 1342.18 2.28253 71.90770000000001 2780 1390
N 1373.72 136.701 62.3444 2781 1391
N 1372.92 136.286 63.0182 2782 1391
N 1657.33 41.3462 5.09358 2783 1392
N 1657.57 41.9732 4.20168 2784 1392
N 1443.79 125.511 93.65600000000001 2785 1393
N 1444.1 125.015 92.7081 2786 1393
N 1398.46 5.91318 145.85 2787 1394
N 1398.72 4.86265 145.581 2788 1394
N 1342.18 70.1919 79.14449999999999 2789 1395
N 1342.18 70.1486 78.0291 2790 1395
N 1392.91 146.824 72.13500000000001 2791 1396
N 1393.64 146.432 72.8974 2792 1396
N 1403.92 85.4706 100.612 2793 1397
N 1404.83 85.8471 101.15 2794 1397
N 1375.28 122.555 74.08450000000001 2795 1398
N 1375.03 122.399 72.9988 2796 1398
N 1425.78 55.4471 35.0523 2797 1399
N 1424.74 55.2485 34.7172 2798 1399
N 1375.02 69.0082 102.267 2799 1400
N 1374.83 70.07899999999999 102.53 2800 1400
N 1599.37 54.5328 5.46004 2801 1401
N 1599.67 53.5856 4.92432 2802 1401
N 1354.9 108.492 117.832 2803 1402
N 1353.99 108.657 117.186 2804 1402
N 1377.05 115.389 86.4931 2805 1403
N 1376.99 116.212 85.7411 2806 1403
N 1342.18 97.9389 108.1 2807 1404
N 1342.18 96.89239999999999 107.628 2808 1404
N 1373.18 71.0519 56.2534 2809 1405
N 1373.1 70.5341 55.2624 2810 1405
N 1575.27 54.5512 30.5529 2811 1406
N 1574.9 55.5646 30.7979 2812 1406
N 1342.18 111.842 89.58369999999999 2813 1407
N 1342.18 111.335 88.5331 2814 1407
N 1342.18 122.242 62.5875 2815 1408
N 1342.18 123.058 61.8015 2816 1408
N 1455.67 74.77679999999999 130.794 2817 1409
N 1456.27 75.2949 131.576 2818 1409
N 1689.11 56.7656 24.7075 2819 1410
N 1688.7 57.7775 24.466 2820 1410
N 1342.18 5.34648 139.629 2821 1411
N 1342.18 6.26137 140.198 2822 1411
N 1385.5 71.81950000000001 112.856 2823 1412
N 1385.57 72.5329 113.692 2824 1412
N 1367.96 66.1498 51.5164 2825 1413
N 1368.82 65.4709 51.2255 2826 1413
N 1438.5 75.86069999999999 110.019 2827 1414
N 1438.35 76.5819 110.853 2828 1414
N 1534.17 71.771 120.1 2829 1415
N 1534.92 70.971 119.992 2830 1415
N 1405.18 71.6327 13.7839 2831 1416
N 1405.13 71.0977 12.7978 2832 1416
N 1404.62 48.9428 48.8172 2833 1417
N 1404.33 48.1147 49.5072 2834 1417
N 1348.26 142.936 142.003 2835 1418
N 1348.78 142.548 141.093 2836 1418
N 1465.22 121.097 135.266 2837 1419
N 1464.32 121.762 135.456 2838 1419
N 1433.36 10.5578 57.2289 2839 1420
N 1433.03 9.548109999999999 56.8534 2840 1420
N 1418.42 77.84829999999999 134.693 2841 1421
N 1418.83 77.1922 135.492 2842 1421
N 1728.83 54.4415 0.957694 2843 1422
N 1728.46 53.4002 0.783095 2844 1422
N 1500.97 30.4254 65.8659 2845 1423
N 1501.2 30.7201 66.9222 2846 1423
N 1472.14 124.809 38.3015 2847 1424
N 1472.82 125.671 38.4805 2848 1424
N 1352.96 107.406 3.77904 2849 1425
N 1353.2 108.41 4.17645 2850 1425
N 1363.99 43.6877 107.282 2851 1426
N 1363.3 43.5711 106.423 2852 1426
N 1453.86 99.41370000000001 63.6957 2853 1427
N 1452.77 99.71120000000001 63.552 2854 1427
N 1496.64 28.5417 68.46169999999999 2855 1428
N 1496.04 27.6773 68.06999999999999 2856 1428
N 1384.95 126.951 24.4332 2857 1429
N 1385.04 127.371 25.4716 2858 1429
N 1614.99 120.401 146.706 2859 1430
N 1615.35 121.474 146.789 2860 1430
N 1484.7 127.366 121.153 2861 1431
N 1483.6 127.311 121.338 2862 1431
N 1521.32 8.360860000000001 6.52797 2863 1432
N 1520.36 8.923019999999999 6.57461 2864 1432
N 1342.18 0.919986 20.9403 2865 1433
N 1342.18 149.812 20.9196 2866 1433
N 1431.66 138.546 52.7206 2867 1434
N 1431.72 137.434 52.5647 2868 1434
N 1507.05 114.033 5.48403 2869 1435
N 1505.95 114.308 5.50167 2870 1435
N 1417.74 25.8226 108.697 2871 1436
N 1416.68 25.7666 108.405 2872 1436
N 1377.04 15.7651 34.613 2873 1437
N 1376.93 16.7177 34.0085 2874 1437
N 1342.18 143.417 120.582 2875 1438
N 1342.18 142.313 120.313 2876 1438
N 1342.18 20.0421 32.6935 2877 1439
N 1342.18 18.984 32.6887 2878 1439
N 1355.64 111.761 78.00230000000001 2879 1440
N 1355.43 110.974 77.25790000000001 2880 1440
N 1474.19 6.85231 10.7097 2881 1441
N 1475.27 7.11902 10.7356 2882 1441
N 1417.9 115.869 106.537 2883 1442
N 1417.16 116.605 106.161 2884 1442
N 1405.55 46.9869 3.64193 2885 1443
N 1405.02 46.8398 4.61903 2886 1443
N 1468.64 100.008 22.6753 2887 1444
N 1469.77 100.077 22.5782 2888 1444
N 1426.93 53.0764 31.8757 2889 1445
N 1426.34 54.0201 32.0621 2890 1445
N 1392.59 14.4836 17.683 2891 1446
N 1392.76 13.8458 18.5849 2892 1446
N 1360.73 15.5985 39.9036 2893 1447
N 1360.69 14.4972 39.6958 2894 1447
N 1615.94 114.992 45.3923 2895 1448
N 1615.33 114.081 45.1685 2896 1448
N 1342.18 27.4892 126.122 2897 1449
N 1342.18 26.7658 125.272 2898 1449
N 1481.74 104.84 122.389 2899 1450
N 1480.88 105.45 121.965 2900 1450
N 1342.18 104.431 53.2257 2901 1451
N 1342.18 103.315 53.1319 2902 1451
N 1353.95 92.9481 4.70944 2903 1452
N 1353.13 92.8233 3.97812 2904 1452
N 1342.18 75.94540000000001 12.8387 2905 1453
N 1342.18 75.0376 12.2311 2906 1453
N 1397.05 11.5566 107.818 2907 1454
N 1398.09 11.483 108.212 2908 1454
N 1432.17 7.54797 135.461 2909 1455
N 1432.37 6.89542 134.591 2910 1455
N 1342.18 8.988250000000001 76.9744 2911 1456
N 1342.18 7.89649 76.7638 2912 1456
N 1342.18 126.544 48.4706 2913 1457
N 1342.18 125.475 48.1725 2914 1457
N 1383.87 38.0963 48.074 2915 1458
N 1383.51 38.4999 49.0444 2916 1458
N 1342.18 114.938 14.6134 2917 1459
N 1342.18 113.909 14.2597 2918 1459
N 1422.29 74.1781 64.57899999999999 2919 1460
N 1421.96 73.1315 64.4054 2920 1460
N 1485.63 64.3597 78.63809999999999 2921 1461
N 1486.42 64.9572 79.1692 2922 1461
N 1357.69 91.49379999999999 90.51819999999999 2923 1462
N 1356.88 91.8494 89.8614 2924 1462
N 1426.62 104.217 106.92 2925 1463
N 1426.75 103.652 105.963 2926 1463
N 1366.52 80.1631 105.046 2927 1464
N 1367.43 80.4751 105.616 2928 1464
N 1395.62 32.1159 82.4821 2929 1465
N 1396.11 31.1868 82.09520000000001 2930 1465
N 1471.4 27.8976 43.8805 2931 1466
N 1471.75 28.1603 42.8459 2932 1466
N 1478.28 125.502 146.905 2933 1467
N 1477.65 124.757 147.437 2934 1467
N 1420.28 124.301 7.86915 2935 1468
N 1419.74 124.83 7.05766 2936 1468
N 1473.03 11.2654 129.634 2937 1469
N 1473.26 10.18 129.745 2938 1469
N 1342.18 144.164 9.558479999999999 2939 1470
N 1342.18 145.277 9.43581 2940 1470
N 1542.9 106.564 68.3724 2941 1471
N 1542.94 105.467 68.6037 2942 1471
N 1342.18 25.6348 64.4421 2943 1472
N 1342.18 24.5815 64.1347 2944 1472
N 1348.99 101.984 44.0397 2945 1473
N 1349.73 101.279 43.5907 2946 1473
N 1457.63 23.6949 12.7811 2947 1474
N 1456.7 23.0794 12.9048 2948 1474
N 1484.94 144.49 115.123 2949 1475
N 1484.99 143.388 115.136 2950 1475
N 1377.88 79.78060000000001 56.5498 2951 1476
N 1377.59 80.206 55.5569 2952 1476
N 1361.55 18.8137 121.146 2953 1477
N 1360.54 18.5627 121.603 2954 1477
N 1483.08 8.073 24.4657 2955 1478
N 1483.56 7.86228 23.4835 2956 1478
N 1350.38 105.308 137.663 2957 1479
N 1349.82 106.041 137.027 2958 1479
N 1342.18 42.3945 2.58156 2959 1480
N 1342.18 42.311 1.50553 2960 1480
N 1437.87 118.845 28.381 2961 1481
N 1438.49 119.709 28.7393 2962 1481
N 1360.42 80.08450000000001 89.937 2963 1482
N 1361.38 80.68049999999999 89.9058 2964 1482
N 1364.62 86.54900000000001 27.274 2965 1483
N 1364 87.4748 27.0378 2966 1483
N 1417.42 110.23 76.8914 2967 1484
N 1417.34 111.283 77.29519999999999 2968 1484
N 1342.18 44.4263 74.35639999999999 2969 1485
N 1342.18 45.2814 73.61409999999999 2970 1485
N 1429.41 136.21 42.8341 2971 1486
N 1430.49 136.19 43.2083 2972 1486
N 1462.23 63.4119 46.4241 2973 1487
N 1461.76 62.4655 46.8065 2974 1487
N 1381.28 110.021 124.015 2975 1488
N 1380.99 108.923 124.197 2976 1488
N 1391.56 60.8292 131.881 2977 1489
N 1392.5 60.6166 132.425 2978 1489
N 1452.82 93.91849999999999 96.4238 2979 1490
N 1451.98 94.4487 95.8955 2980 1490
N 1377.04 110.181 148.754 2981 1491
N 1376.93 110.476 149.811 2982 1491
N 1468.98 136.749 65.5081 2983 1492
N 1468.27 137.591 65.62730000000001 2984 1492
N 1462.39 26.5624 128.007 2985 1493
N 1461.77 26.2636 128.903 2986 1493
N 1372.59 44.9818 89.2847 2987 1494
N 1372.04 45.0668 90.2244 2988 1494
N 1436.72 35.2891 13.9799 2989 1495
N 1436.35 35.207 14.9999 2990 1495
N 1494.18 22.127 11.2317 2991 1496
N 1495.14 21.5946 11.4849 2992 1496
N 1353.81 90.3043 133.835 2993 1497
N 1353.44 90.76090000000001 134.809 2994 1497
N 1651.68 83.2722 49.0785 2995 1498
N 1651.05 83.4187 49.9902 2996 1498
N 1345.26 16.7784 91.2773 2997 1499
N 1346.01 17.4065 90.729 2998 1499
N 1342.18 109.748 76.8142 2999 1500
N 1342.18 110.03 77.8828 3000 1500
N 1342.18 56.0165 71.4397 3001 1501
N 1342.18 55.9898 72.5808 3002 1501
N 1402.97 127.093 13.9043 3003 1502
N 1403.52 128.044 13.7042 3004 1502
N 1518.36 2.51449 129.846 3005 1503
N 1518.55 1.5021 129.412 3006 1503
N 1356.82 122.558 116.906 3007 1504
N 1356.43 123.485 116.382 3008 1504
N 1462.22 88.5509 58.5215 3009 1505
N 1462.13 88.77630000000001 59.6039 3010 1505
N 1509.8 10.7792 35.6259 3011 1506
N 1508.95 11.121 36.2663 3012 1506
N 1485.84 103.161 84.88809999999999 3013 1507
N 1485.8 104.212 84.5252 3014 1507
N 1466.54 131.448 41.4291 3015 1508
N 1465.83 131.929 42.1476 3016 1508
N 1596.52 66.1324 22.574 3017 1509
N 1597.04 65.3882 23.2246 3018 1509
N 1342.18 51.0224 43.9196 3019 1510
N 1342.18 52.0941 43.9908 3020 1510
N 1342.18 26.8558 138.194 3021 1511
N 1342.18 25.8809 138.77 3022 1511
N 1428.91 79.61790000000001 25.8156 3023 1512
N 1428.98 80.10720000000001 26.8348 3024 1512
N 1468.57 130.398 28.5435 3025 1513
N 1469.04 131.236 29.1389 3026 1513
N 1342.18 35.1608 4.93045 3027 1514
N 1342.18 36.107 5.60926 3028 1514
N 1342.18 129.886 105.15 3029 1515
N 1342.18 130.96 105.421 3030 1515
N 1431.37 119.004 82.8116 3031 1516
N 1430.55 118.295 82.50960000000001 3032 1516
N 1424.24 16.5399 140.734 3033 1517
N 1423.65 15.7365 141.266 3034 1517
N 1421 93.2003 147.905 3035 1518
N 1421.54 94.0106 148.455 3036 1518
N 1342.18 144.608 65.4757 3037 1519
N 1342.18 145.175 64.5245 3038 1519
N 1351.25 97.74550000000001 101.948 3039 1520
N 1351.2 97.1275 102.87 3040 1520
N 1342.18 133.728 5.38025 3041 1521
N 1342.18 133.548 4.24353 3042 1521
N 1405.51 127.254 48.8272 3043 1522
N 1405.66 127.315 49.9359 3044 1522
N 1354.19 20.5515 3.83772 3045 1523
N 1354.83 19.8644 3.25565 3046 1523
N 1371.23 76.9367 61.7236 3047 1524
N 1372.32 77.05880000000001 61.9515 3048 1524
N 1342.18 92.03189999999999 5.11248 3049 1525
N 1342.18 93.0411 4.64121 3050 1525
N 1395.2 85.48309999999999 43.0542 3051 1526
N 1395.65 86.38549999999999 43.5533 3052 1526
N 1570.13 44.7333 63.4193 3053 1527
N 1570.02 43.8447 64.0947 3054 1527
N 1342.18 86.78740000000001 34.3058 3055 1528
N 1342.18 85.68129999999999 34.1952 3056 1528
N 1469.03 48.125 97.3993 3057 1529
N 1468.33 48.8289 97.91289999999999 3058 1529
N 1342.18 118.139 135.333 3059 1530
N 1342.18 117.564 134.339 3060 1530
N 1410.59 137.05 16.2301 3061 1531
N 1411.48 136.998 15.5366 3062 1531
N 1488.46 0.8098109999999999 48.3067 3063 1532
N 1488.02 1.76492 48.7112 3064 1532
N 1352.52 115.66 114.216 3065 1533
N 1353.55 115.511 113.869 3066 1533
N 1369.9 39.7714 14.3519 3067 1534
N 1368.8 39.7199 14.1768 3068 1534
N 1538.27 17.9478 5.9855 3069 1535
N 1539.23 17.8254 5.4255 3070 1535
N 1342.18 110.301 58.8079 3071 1536
N 1342.18 109.171 58.6955 3072 1536
N 1355.49 96.0526 132.545 3073 1537
N 1354.54 96.4817 132.979 3074 1537
N 1342.18 70.97790000000001 131.432 3075 1538
N 1342.18 71.96810000000001 132.004 3076 1538
N 1446.77 57.0397 14.8588 3077 1539
N 1445.79 56.505 14.8193 3078 1539
N 1355.29 36.7098 130.015 3079 1540
N 1356.35 36.6229 130.349 3080 1540
N 1684.35 43.0865 43.637 3081 1541
N 1683.65 43.42 42.8188 3082 1541
N 1476.62 122.241 6.37493 3083 1542
N 1475.94 121.731 7.11704 3084 1542
N 1380.91 80.8753 104.888 3085 1543
N 1381.92 81.0455 105.288 3086 1543
N 1499.55 31.8748 124.175 3087 1544
N 1498.49 31.594 123.953 3088 1544
N 1342.18 122.338 110.693 3089 1545
N 1342.18 123.128 111.537 3090 1545
N 1394.33 118.921 18.7562 3091 1546
N 1394 118.001 18.197 3092 1546
N 1342.18 34.6828 91.4864 3093 1547
N 1342.18 33.7112 92.0735 3094 1547
N 1342.18 88.5626 62.8002 3095 1548
N 1342.18 88.7212 61.6996 3096 1548
N 1342.18 76.0543 136.89 3097 1549
N 1342.18 76.6262 137.805 3098 1549
N 1476.97 15.2579 9.33175 3099 1550
N 1476.28 15.6574 10.1275 3100 1550
N 1454.15 90.2114 10.821 3101 1551
N 1455.2 89.9312 11.1739 3102 1551
N 1434.5 124.972 145.673 3103 1552
N 1433.99 124.046 145.306 3104 1552
N 1375.89 102.117 18.9288 3105 1553
N 1376.55 101.465 19.5837 3106 1553
N 1549.64 57.2072 79.0521 3107 1554
N 1549.21 56.2939 78.55200000000001 3108 1554
N 1369.89 71.79940000000001 19.9403 3109 1555
N 1369.56 72.0321 18.881 3110 1555
N 1342.18 31.739 55.1786 3111 1556
N 1342.18 32.3386 54.2172 3112 1556
N 1342.18 99.0878 72.057 3113 1557
N 1342.18 98.1794 72.7586 3114 1557
N 1391.29 75.3062 101.36 3115 1558
N 1391.25 76.39830000000001 101.513 3116 1558
N 1411.57 50.4606 90.29649999999999 3117 1559
N 1410.57 49.9857 90.0607 3118 1559
N 1391.11 84.8554 21.9167 3119 1560
N 1390.21 85.13679999999999 22.5227 3120 1560
N 1407.17 59.0244 124.7 3121 1561
N 1407.69 59.5481 125.574 3122 1561
N 1407.08 12.0967 21.8061 3123 1562
N 1407.59 12.1897 20.8 3124 1562
N 1381.32 20.6552 1.62289 3125 1563
N 1380.22 20.4906 1.65024 3126 1563
N 1442.93 109.133 115.522 3127 1564
N 1443.85 109.406 116.068 3128 1564
N 1411.39 146.67 40.3373 3129 1565
N 1411.76 146.665 41.3726 3130 1565
N 1395.17 128.833 103.586 3131 1566
N 1395.57 129.656 104.207 3132 1566
N 1390.23 48.4831 13.1057 3133 1567
N 1389.74 47.4893 12.9045 3134 1567
N 1347.7 136.847 108.583 3135 1568
N 1347.56 136.72 107.482 3136 1568
N 1372.36 1.34396 118.935 3137 1569
N 1372.74 1.68802 119.934 3138 1569
N 1350.05 20.5004 76.7383 3139 1570
N 1349.72 21.2864 75.9888 3140 1570
N 1363.57 26.8832 77.4692 3141 1571
N 1364.18 27.6709 76.94499999999999 3142 1571
N 1411.5 4.40828 116.347 3143 1572
N 1410.67 5.16544 116.528 3144 1572
N 1470.09 46.0185 59.8292 3145 1573
N 1471.05 45.787 59.3067 3146 1573
N 1399.53 62.4207 24.2808 3147 1574
N 1398.57 62.5989 24.8222 3148 1574
N 1363.84 147.678 64.9141 3149 1575
N 1363.1 148.09 65.6773 3150 1575
N 1383.57 116.204 12.4777 3151 1576
N 1383.59 117.282 12.223 3152 1576
N 1370.14 125.194 4.4272 3153 1577
N 1370.76 126.016 4.85503 3154 1577
N 1366.94 102.509 53.3783 3155 1578
N 1366.41 102.77 54.3316 3156 1578
N 1371.25 70.6786 73.8931 3157 1579
N 1371.14 71.7942 73.91679999999999 3158 1579
N 1342.18 105.086 94.9742 3159 1580
N 1342.18 106.128 95.3373 3160 1580
N 1342.18 142.085 4.506 3161 1581
N 1342.18 142.232 3.43227 3162 1581
N 1342.18 64.89239999999999 83.0498 3163 1582
N 1342.18 64.2637 83.9769 3164 1582
N 1390.17 28.0245 25.9688 3165 1583
N 1390.14 27.2743 25.1322 3166 1583
N 1398.68 52.8769 79.77419999999999 3167 1584
N 1399.03 52.9697 78.7206 3168 1584
N 1342.18 37.3776 93.3096 3169 1585
N 1342.18 38.365 93.7944 3170 1585
N 1433.95 32.6466 81.67700000000001 3171 1586
N 1433.76 32.6491 82.7633 3172 1586
N 1452.14 120.962 107.613 3173 1587
N 1452.25 119.847 107.689 3174 1587
N 1451.11 80.3749 101.338 3175 1588
N 1451.65 79.4123 101.503 3176 1588
N 1342.18 6.20427 88.6854 3177 1589
N 1342.18 5.07118 88.62560000000001 3178 1589
N 1473.23 52.8001 41.3716 3179 1590
N 1473.79 53.3948 42.1104 3180 1590
N 1342.18 147.714 35.2268 3181 1591
N 1342.18 147.67 36.3243 3182 1591
N 1404.7 137.005 36.3376 3183 1592
N 1405.53 136.587 35.7321 3184 1592
N 1380.78 27.5794 33.0725 3185 1593
N 1379.67 27.574 33.2221 3186 1593
N 1420.57 130.231 145.584 3187 1594
N 1420.02 131.176 145.879 3188 1594
N 1597.43 52.8358 29.241 3189 1595
N 1597.69 53.2326 28.234 3190 1595
N 1364.22 23.4188 77.9085 3191 1596
N 1363.5 23.4138 77.0386 3192 1596
N 1379.63 107.263 46.8763 3193 1597
N 1379.65 107.838 45.9066 3194 1597
N 1431.89 99.2217 32.2226 3195 1598
N 1432.62 99.2212 31.3674 3196 1598
N 1342.18 54.6957 102.845 3197 1599
N 1342.18 55.0211 103.931 3198 1599
N 1354.58 94.1199 75.1621 3199 1600
N 1354.12 95.11799999999999 75.3634 3200 1600
N 1342.18 143.95 125.474 3201 1601
N 1342.18 144.778 124.749 3202 1601
N 1843.91 97.657 23.8116 3203 1602
N 1843 97.6925 23.1433 3204 1602
N 1356.18 73.494 128.551 3205 1603
N 1356.63 74.26690000000001 129.23 3206 1603
N 1546.35 64.1246 73.0385 3207 1604
N 1546.76 63.1605 73.4303 3208 1604
N 1381.27 30.4676 3.25711 3209 1605
N 1381.04 31.3423 2.55651 3210 1605
N 1342.18 39.3705 67.74939999999999 3211 1606
N 1342.18 39.7767 68.8065 3212 1606
N 1442.75 36.7004 105.353 3213 1607
N 1441.73 36.5009 104.983 3214 1607
N 1357.97 62.1281 148.298 3215 1608
N 1357.56 63.1028 148.681 3216 1608
N 1342.18 138.996 11.9759 3217 1609
N 1342.18 139.115 13.0439 3218 1609
N 1342.18 53.2059 53.2388 3219 1610
N 1342.18 52.8405 54.2684 3220 1610
N 1470.04 71.77079999999999 93.75060000000001 3221 1611
N 1469.06 71.7953 94.24460000000001 3222 1611
N 1575.03 69.7517 116.7 3223 1612
N 1574.26 68.9772 116.511 3224 1612
N 1520.98 43.7432 43.3928 3225 1613
N 1521.04 42.9561 42.6007 3226 1613
N 1522.36 129.872 60.92 3227 1614
N 1523.12 129.505 61.6788 3228 1614
N 1363.02 27.1455 5.12252 3229 1615
N 1363.82 26.3795 5.10748 3230 1615
N 1386.58 70.5685 4.63432 3231 1616
N 1386.51 70.00320000000001 3.66446 3232 1616
N 1354.37 59.9428 15.1564 3233 1617
N 1355.2 60.6095 15.4405 3234 1617
N 1342.18 26.2765 103.453 3235 1618
N 1342.18 25.2887 103.994 3236 1618
N 1475.52 27.2611 124.007 3237 1619
N 1476.09 27.9714 123.324 3238 1619
N 1369.14 30.9163 34.8496 3239 1620
N 1368.11 31.0136 34.4593 3240 1620
N 1342.18 143.87 139.663 3241 1621
N 1342.18 143.034 140.356 3242 1621
N 1353.41 16.3564 146.059 3243 1622
N 1354.51 16.0949 146.106 3244 1622
N 1342.18 83.96810000000001 124.175 3245 1623
N 1342.18 84.4736 125.17 3246 1623
N 1480.62 33.0445 97.97190000000001 3247 1624
N 1480.53 32.0149 97.5553 3248 1624
N 1476.31 103.281 0.183179 3249 1625
N 1476.85 102.552 0.83822 3250 1625
N 1399.26 105.059 121.397 3251 1626
N 1399.25 105.972 122.081 3252 1626
N 1507.98 105.272 113.347 3253 1627
N 1507.8 106.296 113.765 3254 1627
N 1545.6 1.17986 123.202 3255 1628
N 1544.87 1.68089 122.515 3256 1628
N 1342.18 104.296 15.6216 3257 1629
N 1342.18 105.138 16.3486 3258 1629
N 1380.49 64.6084 49.9922 3259 1630
N 1381.38 64.97020000000001 49.4035 3260 1630
N 1342.18 35.5014 10.2614 3261 1631
N 1342.18 34.5917 9.59989 3262 1631
N 1360.42 60.9966 52.6277 3263 1632
N 1359.71 60.7995 51.7909 3264 1632
N 1342.18 78.8869 113.198 3265 1633
N 1342.18 79.76300000000001 112.466 3266 1633
N 1342.18 58.6471 75.26949999999999 3267 1634
N 1342.18 58.7314 74.17959999999999 3268 1634
N 1557.17 120.156 56.6935 3269 1635
N 1556.28 119.543 56.3914 3270 1635
N 1387.97 41.7161 28.932 3271 1636
N 1387.35 40.9987 28.3016 3272 1636
N 1581.94 31.6851 115.107 3273 1637
N 1580.95 31.2752 114.816 3274 1637
N 1475.25 55.1807 134.554 3275 1638
N 1475.16 56.0099 133.826 3276 1638
N 1478.66 60.2351 31.6938 3277 1639
N 1478.89 59.9241 32.745 3278 1639
N 1403.75 144.678 29.5385 3279 1640
N 1404.32 144.712 30.498 3280 1640
N 1400.09 77.0646 0.231173 3281 1641
N 1400.16 76.0291 0.679261 3282 1641
N 1474.45 111.012 129.701 3283 1642
N 1475.48 111.431 129.555 3284 1642
N 1342.18 72.5491 73.83450000000001 3285 1643
N 1342.18 72.43770000000001 74.95140000000001 3286 1643
N 1386.59 129.43 15.3615 3287 1644
N 1385.71 129.876 14.8087 3288 1644
N 1342.18 16.622 51.6934 3289 1645
N 1342.18 16.9907 52.7368 3290 1645
N 1412.94 90.3334 132.473 3291 1646
N 1411.88 90.6246 132.297 3292 1646
N 1347.55 126.492 56.6299 3293 1647
N 1348.1 126.648 57.6056 3294 1647
N 1424.11 116.655 13.7263 3295 1648
N 1425.11 116.685 14.2261 3296 1648
N 1342.18 32.1541 62.5968 3297 1649
N 1342.18 33.2659 62.4278 3298 1649
N 1397.19 147.904 39.3555 3299 1650
N 1397.26 148.957 39.776 3300 1650
N 1858.9 87.4931 138.46 3301 1651
N 1858.85 87.5973 137.351 3302 1651
N 1392.1 97.3561 138.765 3303 1652
N 1392.2 96.9979 137.719 3304 1652
N 1387.67 110.557 110.942 3305 1653
N 1387.29 110.148 111.939 3306 1653
N 1411.86 97.65689999999999 59.7683 3307 1654
N 1412.75 97.246 59.2072 3308 1654
N 1342.18 17.821 113.084 3309 1655
N 1342.18 18.6386 112.377 3310 1655
N 1426 124.835 52.3987 3311 1656
N 1426.55 124.649 51.4453 3312 1656
N 1342.18 92.01179999999999 28.3099 3313 1657
N 1342.18 93.0925 28.4423 3314 1657
N 1417.02 79.7846 56.2853 3315 1658
N 1416.1 80.0341 55.6959 3316 1658
N 1342.18 78.459 53.9061 3317 1659
N 1342.18 77.4114 54.2083 3318 1659
N 1366.67 109.118 123.032 3319 1660
N 1367.04 108.064 122.999 3320 1660
N 1351.9 115.814 132.695 3321 1661
N 1352.4 116.81 132.77 3322 1661
N 1342.18 49.0924 112.588 3323 1662
N 1342.18 49.9076 113.374 3324 1662
N 1614.08 16.8148 121.395 3325 1663
N 1614.09 17.7952 120.872 3326 1663
N 1380.95 132.625 145.995 3327 1664
N 1380.41 133.255 145.25 3328 1664
N 1390.44 55.1251 98.3753 3329 1665
N 1391.29 55.7805 98.6596 3330 1665
N 1342.18 102.366 10.6755 3331 1666
N 1342.18 103.462 10.8759 3332 1666
N 1342.18 148.304 93.68000000000001 3333 1667
N 1342.18 148.211 94.798 3334 1667
N 1459.94 93.8417 128.893 3335 1668
N 1460.33 93.0137 129.508 3336 1668
N 1375.28 8.52139 11.8631 3337 1669
N 1375.48 8.148709999999999 12.8823 3338 1669
N 1571.74 23.9011 12.622 3339 1670
N 1571.83 24.2679 13.6679 3340 1670
N 1379.81 120.63 111.372 3341 1671
N 1379.9 120.407 110.267 3342 1671
N 1409.21 119.819 75.947 3343 1672
N 1409.68 120.693 76.46250000000001 3344 1672
N 1376.62 6.26042 40.4746 3345 1673
N 1377.26 5.37027 40.7351 3346 1673
N 1404.67 42.6015 85.58620000000001 3347 1674
N 1404.9 41.8375 86.3613 3348 1674
N 1375.32 69.0947 41.8716 3349 1675
N 1374.75 68.2021 42.2034 3350 1675
N 1436.61 134.806 58.5062 3351 1676
N 1437.72 135.043 58.4432 3352 1676
N 1342.18 91.5998 10.8029 3353 1677
N 1342.18 91.2598 11.8504 3354 1677
N 1419.83 14.2326 51.6977 3355 1678
N 1420.78 13.7946 51.306 3356 1678
N 1342.18 110.331 39.3651 3357 1679
N 1342.18 109.395 38.7297 3358 1679
N 1391.58 104.19 77.5613 3359 1680
N 1390.87 105.013 77.8396 3360 1680
N 1342.18 120.056 15.8569 3361 1681
N 1342.18 119.503 16.8056 3362 1681
N 1517.45 25.1104 114.585 3363 1682
N 1516.88 25.8001 115.222 3364 1682
N 1557.19 137.326 74.3764 3365 1683
N 1557.78 138.1 74.8896 3366 1683
N 1394.87 17.0129 6.63669 3367 1684
N 1395.17 15.9326 6.35806 3368 1684
N 1342.18 0.8609329999999999 42.1268 3369 1685
N 1342.18 0.827865 40.9996 3370 1685
N 1342.18 67.6698 135.425 3371 1686
N 1342.18 66.631 135.627 3372 1686
N 1464.29 11.4733 116.508 3373 1687
N 1463.26 11.9001 116.39 3374 1687
N 1342.18 33.1539 34.2061 3375 1688
N 1342.18 32.0956 34.6305 3376 1688
N 1342.18 48.5986 93.8905 3377 1689
N 1342.18 48.4154 94.97799999999999 3378 1689
N 1351.55 100.919 15.2882 3379 1690
N 1350.82 100.267 15.835 3380 1690
N 1352.98 73.2432 139.408 3381 1691
N 1352.51 74.2458 139.289 3382 1691
N 1342.18 119.401 90.55029999999999 3383 1692
N 1342.18 118.394 90.18519999999999 3384 1692
N 1342.18 17.4348 146.704 3385 1693
N 1342.18 18.403 146.152 3386 1693
N 1378.95 47.6996 142.339 3387 1694
N 1379.43 48.1568 141.436 3388 1694
N 1444.94 100.645 1.89075 3389 1695
N 1445.75 99.889 2.05307 3390 1695
N 1456 9.29078 145.558 3391 1696
N 1456.26 8.542450000000001 146.322 3392 1696
N 1372.1 64.20829999999999 36.7995 3393 1697
N 1371.49 63.7185 37.5997 3394 1697
N 1342.18 31.9908 17.1426 3395 1698
N 1342.18 31.5808 16.0975 3396 1698
N 1342.18 69.41370000000001 143.724 3397 1699
N 1342.18 70.0414 144.611 3398 1699
N 1536.48 149.781 33.4847 3399 1700
N 1536.02 148.952 32.8961 3400 1700
N 1366.09 80.42059999999999 71.96380000000001 3401 1701
N 1365.28 81.1956 72.1236 3402 1701
N 1444.22 122.937 41.2065 3403 1702
N 1443.98 122.127 40.4478 3404 1702
N 1463.7 44.8974 85.78189999999999 3405 1703
N 1463.61 45.5877 86.65430000000001 3406 1703
N 1443.3 145.421 118.531 3407 1704
N 1443.71 145.433 117.5 3408 1704
N 1426.55 71.268 1.07455 3409 1705
N 1426.59 71.9649 0.222038 3410 1705
N 1356.77 19.7162 129.906 3411 1706
N 1357.29 20.6688 129.659 3412 1706
N 1378.92 14.3632 38.4495 3413 1707
N 1379.6 13.5114 38.126 3414 1707
N 1400.78 13.7458 82.1716 3415 1708
N 1400.39 14.133 83.1477 3416 1708
N 1582.95 28.873 43.971 3417 1709
N 1584.04 29.1793 44.0127 3418 1709
N 1587.31 148.854 72.1695 3419 1710
N 1586.48 148.194 71.81610000000001 3420 1710
N 1369.91 135.287 72.48860000000001 3421 1711
N 1370.1 135.843 71.5295 3422 1711
N 1386.74 61.1989 93.2512 3423 1712
N 1385.79 60.7208 92.86239999999999 3424 1712
N 1459.05 139.483 77.63639999999999 3425 1713
N 1459.14 138.803 76.7486 3426 1713
N 1410.19 135.889 59.5037 3427 1714
N 1409.21 135.354 59.4993 3428 1714
N 1342.18 47.8557 25.5853 3429 1715
N 1342.18 48.7884 26.2038 3430 1715
N 1492.02 68.68389999999999 128.719 3431 1716
N 1491.23 67.91 128.906 3432 1716
N 1412.86 11.5673 24.1332 3433 1717
N 1413.64 10.8408 23.7388 3434 1717
N 1585.83 82.09910000000001 17.4575 3435 1718
N 1585.24 83.051 17.5755 3436 1718
N 1355.36 95.9503 65.2308 3437 1719
N 1355.19 94.8463 65.2401 3438 1719
N 1352.52 45.8211 11.1887 3439 1720
N 1352.79 44.7551 11.2085 3440 1720
N 1345.04 46.7751 83.19070000000001 3441 1721
N 1344.46 47.422 83.92310000000001 3442 1721
N 1342.18 90.31229999999999 84.7372 3443 1722
N 1342.18 89.24679999999999 84.7056 3444 1722
N 1342.18 60.4008 38.5432 3445 1723
N 1342.18 59.2795 38.358 3446 1723
N 1421.6 149.032 120.349 3447 1724
N 1420.74 148.43 120.763 3448 1724
N 1591.05 3.00613 103.154 3449 1725
N 1592.12 2.7965 103.422 3450 1725
N 1418.38 136.879 70.4483 3451 1726
N 1419.46 137.15 70.2835 3452 1726
N 1394.31 137.942 77.7015 3453 1727
N 1393.21 137.905 77.9318 3454 1727
N 1558.96 39.1206 123.304 3455 1728
N 1558.42 38.2823 122.809 3456 1728
N 1480.79 16.9179 4.61419 3457 1729
N 1480.37 15.8661 4.55271 3458 1729
N 1382.87 58.8557 18.4739 3459 1730
N 1382.01 59.5149 18.7196 3460 1730
N 1342.18 126.489 75.92359999999999 3461 1731
N 1342.18 127.588 75.6827 3462 1731
N 1471.28 72.1056 64.3348 3463 1732
N 1471.65 71.5979 63.4165 3464 1732
N 1417.11 146.89 110.408 3465 1733
N 1417.02 147.916 110.866 3466 1733
N 1400.95 123.022 114.353 3467 1734
N 1401.38 122.706 115.363 3468 1734
N 1384.6 76.2719 40.4097 3469 1735
N 1384.37 77.2727 40.8627 3470 1735
N 1354.29 71.7286 45.5513 3471 1736
N 1353.58 71.68259999999999 44.6745 3472 1736
N 1386.2 12.3915 122.783 3473 1737
N 1387.21 12.5774 123.22 3474 1737
N 1342.18 94.0938 102.261 3475 1738
N 1342.18 93.01049999999999 101.968 3476 1738
N 1590.95 32.5452 106.652 3477 1739
N 1590.6 32.5472 105.604 3478 1739
N 1342.18 124.819 18.6671 3479 1740
N 1342.18 125.269 19.6755 3480 1740
N 1460.23 148.429 128.554 3481 1741
N 1460.11 148.395 129.671 3482 1741
N 1466.62 83.8486 58.2183 3483 1742
N 1467.61 83.43389999999999 57.9175 3484 1742
N 1381.69 21.1568 88.2978 3485 1743
N 1382.74 20.766 88.1703 3486 1743
N 1372.7 109.987 65.42 3487 1744
N 1373.75 110.337 65.32129999999999 3488 1744
N 1404.23 108.468 38.6752 3489 1745
N 1404.26 109.58 38.7126 3490 1745
N 1472.32 123.879 132.256 3491 1746
N 1472.66 122.831 132.37 3492 1746
N 1468.12 93.40470000000001 119.939 3493 1747
N 1467.33 92.6146 119.843 3494 1747
N 1456.24 149.621 75.4757 3495 1748
N 1455.35 148.964 75.64149999999999 3496 1748
N 1510.51 55.4942 137.341 3497 1749
N 1510.15 56.5168 137.087 3498 1749
N 1403.62 63.9595 37.4768 3499 1750
N 1404.53 63.3116 37.3634 3500 1750
N 1497.02 104.704 71.748 3501 1751
N 1497.89 105.345 71.40519999999999 3502 1751
N 1369.38 63.4465 84.5463 3503 1752
N 1368.36 63.2259 84.9721 3504 1752
N 1353.13 129.031 142.553 3505 1753
N 1352.11 128.692 142.296 3506 1753
N 1523.04 133.038 12.8053 3507 1754
N 1523.18 132.278 13.6219 3508 1754
N 1435.4 66.196 65.3282 3509 1755
N 1435.94 65.2744 65.7103 3510 1755
N 1342.18 148.284 2.74418 3511 1756
N 1342.18 148.947 1.82963 3512 1756
N 1415.03 118.538 47.5697 3513 1757
N 1414.88 119.281 46.7612 3514 1757
N 1418.92 19.2033 15.3349 3515 1758
N 1418.57 19.236 16.4043 3516 1758
N 1472.51 5.36757 109.959 3517 1759
N 1473.17 5.84417 110.716 3518 1759
N 1342.18 117.438 93.2932 3519 1760
N 1342.18 118.041 94.24460000000001 3520 1760
N 1342.18 29.7567 79.2743 3521 1761
N 1342.18 30.8162 79.1131 3522 1761
N 1380.82 106.805 55.3444 3523 1762
N 1381.18 107.866 55.4101 3524 1762
N 1378.36 131.45 57.7111 3525 1763
N 1377.56 130.738 58.042 3526 1763
N 1443.27 125.745 100.149 3527 1764
N 1443.01 125.176 101.058 3528 1764
N 1492.24 0.605532 21.1685 3529 1765
N 1492.47 1.4661 20.4918 3530 1765
N 1368.24 23.0685 73.8659 3531 1766
N 1368.12 23.4683 72.84220000000001 3532 1766
N 1516.72 144.733 27.0613 3533 1767
N 1516.26 143.72 27.0166 3534 1767
N 1342.18 61.9152 141.829 3535 1768
N 1342.18 62.1306 140.719 3536 1768
N 1559.39 10.8103 39.1396 3537 1769
N 1559.05 10.7888 40.1861 3538 1769
N 1342.18 124.348 145.473 3539 1770
N 1342.18 124.207 144.346 3540 1770
N 1342.18 8.14507 72.7929 3541 1771
N 1342.18 7.07787 72.4376 3542 1771
N 1376.34 137.489 119.408 3543 1772
N 1376.22 138.448 119.994 3544 1772
N 1378.06 63.5918 73.60209999999999 3545 1773
N 1378.85 63.3202 74.3304 3546 1773
N 1415.57 80.3058 18.2601 3547 1774
N 1415.1 80.8836 19.0855 3548 1774
N 1430.98 92.4755 134.144 3549 1775
N 1431.99 91.983 134.323 3550 1775
N 1360.11 138.79 84.7556 3551 1776
N 1359.5 139.488 85.39790000000001 3552 1776
N 1402.52 48.3895 63.2304 3553 1777
N 1402.61 47.34 63.6218 3554 1777
N 1501.68 116 96.0553 3555 1778
N 1502.56 116.679 96.09010000000001 3556 1778
N 1415.96 111.165 83.5505 3557 1779
N 1416.05 111.778 84.47029999999999 3558 1779
N 1468.49 70.9885 43.7889 3559 1780
N 1468.66 71.94 44.3589 3560 1780
N 1342.18 58.7315 24.7099 3561 1781
N 1342.18 59.7043 24.1403 3562 1781
N 1370.33 4.50654 89.50879999999999 3563 1782
N 1370.28 3.584 88.8935 3564 1782
N 1468.97 16.9434 60.1919 3565 1783
N 1468.42 17.7896 59.743 3566 1783
N 1569.65 13.2336 135.059 3567 1784
N 1570.46 12.6319 134.546 3568 1784
N 1342.18 60.2129 90.23 3569 1785
N 1342.18 61.1767 90.7817 3570 1785
N 1375.54 32.8041 42.8117 3571 1786
N 1376.4 32.6098 42.1303 3572 1786
N 1683.86 36.2589 70.42140000000001 3573 1787
N 1682.81 35.907 70.2383 3574 1787
N 1460.32 16.8265 7.61734 3575 1788
N 1460.48 17.1405 8.677569999999999 3576 1788
N 1403.07 121.066 9.46785 3577 1789
N 1403.06 119.951 9.46785 3578 1789
N 1583.85 142.619 137.657 3579 1790
N 1582.86 142.1 137.556 3580 1790
N 1342.18 19.6702 36.3008 3581 1791
N 1342.18 20.7754 36.3502 3582 1791
N 1356.1 20.5168 0.08046780000000001 3583 1792
N 1355.06 20.8885 149.92 3584 1792
N 1347.83 53.7768 127.708 3585 1793
N 1347.87 52.9098 128.403 3586 1793
N 1361.44 139.668 118.285 3587 1794
N 1361.71 138.889 117.515 3588 1794
N 1390.57 35.4208 8.05097 3589 1795
N 1389.74 35.804 7.39724 3590 1795
N 1463.69 7.55171 116.768 3591 1796
N 1462.88 6.98349 117.278 3592 1796
N 1468.2 57.7722 110.822 3593 1797
N 1468.02 58.4765 111.669 3594 1797
N 1342.18 117.466 48.786 3595 1798
N 1342.18 117.784 49.8842 3596 1798
N 1494.09 41.4533 141.157 3597 1799
N 1493.96 41.0705 142.217 3598 1799
N 1561.04 110.777 35.2482 3599 1800
N 1561 111.463 34.3962 3600 1800
N 1352.51 144.105 39.7995 3601 1801
N 1352.47 144.656 40.7834 3602 1801
N 1347.67 141.992 57.2815 3603 1802
N 1346.87 141.231 57.3997 3604 1802
N 1366.3 146.208 133.759 3605 1803
N 1366.13 145.172 134.135 3606 1803
N 1366.32 125.173 148.386 3607 1804
N 1366.44 124.072 148.244 3608 1804
N 1393.57 15.2608 141.715 3609 1805
N 1393.59 15.8998 142.642 3610 1805
N 1370.71 66.3138 45.6849 3611 1806
N 1370.52 65.7162 44.7586 3612 1806
N 1361.89 46.5411 91.703 3613 1807
N 1361.54 47.5508 92.021 3614 1807
N 1367.84 65.35080000000001 6.50869 3615 1808
N 1368.65 65.37430000000001 5.71815 3616 1808
N 1342.18 116.544 60.9311 3617 1809
N 1342.18 116.361 59.8572 3618 1809
N 1362.63 129.053 14.018 3619 1810
N 1363.47 129.005 14.7599 3620 1810
N 1477.88 62.4929 129.349 3621 1811
N 1478 61.4813 128.877 3622 1811
N 1399.1 71.8359 137.322 3623 1812
N 1400.1 71.6807 137.784 3624 1812
N 1362.4 46.746 62.0982 3625 1813
N 1363.09 46.7914 61.2215 3626 1813
N 1497.71 50.0131 6.00363 3627 1814
N 1498.68 49.4729 5.9719 3628 1814
N 1385.83 146.462 106.773 3629 1815
N 1386.15 145.999 107.719 3630 1815
N 1467.72 143.49 134.483 3631 1816
N 1467.74 144.341 135.207 3632 1816
N 1504.27 87.5402 146.843 3633 1817
N 1505.21 88.15519999999999 146.881 3634 1817
N 1655.21 129.183 52.8184 3635 1818
N 1654.66 128.282 53.2145 3636 1818
N 1587.76 124.499 146.506 3637 1819
N 1586.91 124.333 145.803 3638 1819
N 1342.18 10.2906 4.45859 3639 1820
N 1342.18 11.165 3.80838 3640 1820
N 1404.91 0.168479 55.8637 3641 1821
N 1404.62 1.23087 55.9008 3642 1821
N 1348.61 84.9452 38.5705 3643 1822
N 1348 84.01439999999999 38.5194 3644 1822
N 1480.7 108.023 14.4409 3645 1823
N 1479.93 107.308 14.8488 3646 1823
N 1342.18 52.4868 8.85345 3647 1824
N 1342.18 51.9113 9.78192 3648 1824
N 1394.27 136.471 62.5861 3649 1825
N 1394.71 137.461 62.3267 3650 1825
N 1465.42 112.308 0.272909 3651 1826
N 1465.75 112.192 149.177 3652 1826
N 1447.91 4.63154 128.478 3653 1827
N 1447.55 4.02368 127.619 3654 1827
N 1422.87 45.9 98.9637 3655 1828
N 1423.92 46.0357 98.64319999999999 3656 1828
N 1351 63.2146 28.5016 3657 1829
N 1350.13 63.5314 27.8809 3658 1829
N 1408.06 82.72369999999999 127.447 3659 1830
N 1408.48 82.11969999999999 126.602 3660 1830
N 1355.17 82.1088 27.0601 3661 1831
N 1355.26 81.1876 27.7012 3662 1831
N 1356.82 130.88 148.326 3663 1832
N 1356.99 129.99 148.995 3664 1832
N 1380.85 92.3372 135.451 3665 1833
N 1380.32 93.2606 135.756 3666 1833
N 1395.5 55.1967 119.568 3667 1834
N 1395.56 56.2263 119.996 3668 1834
N 1358.81 4.62971 116.015 3669 1835
N 1359.7 5.29084 116.152 3670 1835
N 1384.23 58.1968 51.8049 3671 1836
N 1384.51 58.425 52.8682 3672 1836
N 1364.32 70.4602 32.8901 3673 1837
N 1364.97 69.6563 33.2899 3674 1837
N 1505.47 124.649 141.567 3675 1838
N 1505.52 124.571 140.448 3676 1838
N 1362.19 144.407 113.753 3677 1839
N 1362.08 143.297 113.88 3678 1839
N 1516.87 18.826 149.042 3679 1840
N 1517.3 18.4363 149.975 3680 1840
N 1358.41 38.5565 33.5412 3681 1841
N 1358.6 38.1223 32.5523 3682 1841
N 1342.18 19.3645 142.458 3683 1842
N 1342.18 20.3973 142.94 3684 1842
N 1603.81 9.4955 7.72843 3685 1843
N 1602.76 9.840619999999999 7.60404 3686 1843
N 1424.03 107.816 79.7251 3687 1844
N 1424.87 107.572 80.4486 3688 1844
N 1365.3 77.20359999999999 111.314 3689 1845
N 1365.07 76.1194 111.364 3690 1845
N 1458.49 44.1809 30.0257 3691 1846
N 1458.01 45.1301 29.7054 3692 1846
N 1458.44 31.0266 96.3245 3693 1847
N 1458.73 29.9467 96.22750000000001 3694 1847
N 1412.43 116.993 132.919 3695 1848
N 1411.39 117.172 133.354 3696 1848
N 1405.15 3.22853 118.421 3697 1849
N 1404.84 2.99184 117.357 3698 1849
N 1359.09 97.2436 27.4593 3699 1850
N 1360 97.0912 28.1095 3700 1850
N 1375.78 116.974 100.01 3701 1851
N 1375.33 116.596 99.07250000000001 3702 1851
N 1410.09 79.4622 30.0853 3703 1852
N 1410.75 80.056 30.7587 3704 1852
N 1351.46 67.98869999999999 35.6432 3705 1853
N 1350.54 68.6215 35.6458 3706 1853
N 1373.77 4.34121 29.7957 3707 1854
N 1374.59 4.17885 29.0947 3708 1854
N 1421.09 104.469 79.387 3709 1855
N 1422.01 103.838 79.5946 3710 1855
N 1347.39 2.23323 25.8454 3711 1856
N 1347.88 2.97903 26.5114 3712 1856
N 1375.45 7.42814 86.53319999999999 3713 1857
N 1374.93 7.36835 85.5411 3714 1857
N 1605.55 103.767 103.001 3715 1858
N 1605.23 103.389 104.002 3716 1858
N 1414.46 41.9621 130.684 3717 1859
N 1413.48 42.1001 130.201 3718 1859
N 1380.6 33.8575 71.35169999999999 3719 1860
N 1380.72 32.7772 71.09 3720 1860
N 1361.13 76.352 31.6952 3721 1861
N 1361.02 77.3398 31.1918 3722 1861
N 1488.84 11.0019 119.679 3723 1862
N 1488.01 11.4011 120.304 3724 1862
N 1433.96 147.619 15.5991 3725 1863
N 1434.57 146.729 15.9457 3726 1863
N 1463.41 131.951 54.5919 3727 1864
N 1462.94 132.544 55.419 3728 1864
N 1464.11 126.592 43.4867 3729 1865
N 1465.18 126.271 43.3487 3730 1865
N 1515.93 127.235 128.499 3731 1866
N 1515.49 128.233 128.72 3732 1866
N 1342.18 93.8982 86.90179999999999 3733 1867
N 1342.18 93.4842 85.8788 3734 1867
N 1415.53 72.9877 118.36 3735 1868
N 1414.71 73.73990000000001 118.253 3736 1868
N 1351.68 133.499 101.89 3737 1869
N 1350.58 133.305 101.994 3738 1869
N 1387.58 71.6964 104.572 3739 1870
N 1388.33 72.49760000000001 104.857 3740 1870
N 1342.18 46.8696 98.5129 3741 1871
N 1342.18 47.1707 99.6026 3742 1871
N 1394.86 62.0082 106.84 3743 1872
N 1393.92 61.6459 107.33 3744 1872
N 1383.6 66.0436 149.312 3745 1873
N 1383.71 64.9585 149.1 3746 1873
N 1441.05 128.173 17.9165 3747 1874
N 1440.08 128.293 18.4574 3748 1874
N 1490.7 148.519 36.3386 3749 1875
N 1490.38 147.508 35.9957 3750 1875
N 1452.81 33.7153 70.05110000000001 3751 1876
N 1453.37 32.9078 69.541 3752 1876
N 1358.55 132.608 57.5124 3753 1877
N 1358.17 132.175 56.5539 3754 1877
N 1342.18 38.1836 45.7489 3755 1878
N 1342.18 38.1825 46.875 3756 1878
N 1563.39 132.018 139.152 3757 1879
N 1563.58 130.973 139.498 3758 1879
N 1342.18 120.048 35.4377 3759 1880
N 1342.18 119.775 34.3355 3760 1880
N 1430.68 23.9228 91.20699999999999 3761 1881
N 1431.62 23.3883 90.9687 3762 1881
N 1555.76 91.7479 139.747 3763 1882
N 1554.87 92.4357 139.691 3764 1882
N 1480.34 53.5101 89.8753 3765 1883
N 1479.64 52.6913 89.5933 3766 1883
N 1426.44 100.037 49.8956 3767 1884
N 1427.04 100.966 49.7596 3768 1884
N 1621.33 73.9898 19.8652 3769 1885
N 1621.28 74.7514 20.7032 3770 1885
N 1406.29 139.568 89.9765 3771 1886
N 1405.22 139.637 90.2757 3772 1886
N 1485.68 90.8053 147.091 3773 1887
N 1484.63 90.4247 146.941 3774 1887
N 1342.18 13.2181 44.4054 3775 1888
N 1342.18 12.182 44.7886 3776 1888
N 1388.58 137.31 133.682 3777 1889
N 1389.01 138.028 132.926 3778 1889
N 1382.67 14.5016 10.7072 3779 1890
N 1381.87 15.1238 11.1744 3780 1890
N 1387.47 29.302 55.1485 3781 1891
N 1386.97 30.2168 55.56 3782 1891
N 1354.33 74.66330000000001 115.868 3783 1892
N 1353.9 74.0605 115.045 3784 1892
N 1516.05 140.022 81.38849999999999 3785 1893
N 1515.14 139.462 81.0431 3786 1893
N 1510.15 6.776 110.924 3787 1894
N 1509.53 7.44256 110.283 3788 1894
N 1358.57 124.873 112.513 3789 1895
N 1359.06 123.877 112.612 3790 1895
N 1342.18 106.195 1.60446 3791 1896
N 1342.18 106.867 2.48362 3792 1896
N 1438.43 102.656 136.384 3793 1897
N 1438.47 103.466 135.611 3794 1897
N 1342.18 93.3008 141.031 3795 1898
N 1342.18 93.9846 141.868 3796 1898
N 1399.1 53.5914 85.2646 3797 1899
N 1399.75 52.7046 85.04049999999999 3798 1899
N 1374.93 5.93801 34.2158 3799 1900
N 1374.56 5.79556 35.2754 3800 1900
N 1378.81 129.484 92.3207 3801 1901
N 1379.64 129.604 91.5998 3802 1901
N 1401.84 56.8169 104.923 3803 1902
N 1402.87 57.0179 104.515 3804 1902
N 1664.78 49.5113 84.9494 3805 1903
N 1665.69 49.447 85.5996 3806 1903
N 1404 34.8303 63.9006 3807 1904
N 1403.97 35.6299 64.69329999999999 3808 1904
N 1385.38 21.6028 135.789 3809 1905
N 1385.16 22.6216 135.352 3810 1905
N 1342.18 28.5907 23.3045 3811 1906
N 1342.18 27.5082 23.5969 3812 1906
N 1342.18 110.503 16.4424 3813 1907
N 1342.18 111.621 16.5992 3814 1907
N 1369.81 94.6361 133.985 3815 1908
N 1369.89 93.54000000000001 134.142 3816 1908
N 1342.18 22.7978 97.1324 3817 1909
N 1342.18 22.4089 98.1986 3818 1909
N 1362.1 107.648 35.255 3819 1910
N 1362.11 107.329 34.1841 3820 1910
N 1400.63 128.965 95.6716 3821 1911
N 1400.35 128.561 96.6857 3822 1911
N 1404.87 139.561 119.545 3823 1912
N 1404.08 140.274 119.882 3824 1912
N 1463.19 100.918 20.8718 3825 1913
N 1463.15 100.186 20.0265 3826 1913
N 1485.52 56.153 23.7696 3827 1914
N 1485.44 57.2634 23.7536 3828 1914
N 1399.98 127.194 132.275 3829 1915
N 1400.2 126.886 133.328 3830 1915
N 1371.77 4.3353 68.72199999999999 3831 1916
N 1371.93 5.11387 67.923 3832 1916
N 1437.24 142.672 43.4673 3833 1917
N 1436.11 142.587 43.2157 3834 1917
N 1471.17 142.758 140.287 3835 1918
N 1471.02 143.551 139.483 3836 1918
N 1827.36 47.9222 43.0891 3837 1919
N 1827.8 47.7421 44.1229 3838 1919
N 1684.6 60.184 28.0473 3839 1920
N 1685.39 60.1443 27.2456 3840 1920
N 1533.44 126.027 48.0687 3841 1921
N 1534.49 126.168 47.7145 3842 1921
N 1382.67 69.2257 134.425 3843 1922
N 1381.88 68.64570000000001 134.955 3844 1922
N 1651.41 149.613 142.707 3845 1923
N 1651.05 0.367083 141.959 3846 1923
N 1342.18 3.64576 13.286 3847 1924
N 1342.18 3.60312 12.163 3848 1924
N 1440.16 78.34480000000001 73.9511 3849 1925
N 1439.92 79.07129999999999 74.7697 3850 1925
N 1467.31 24.984 9.735749999999999 3851 1926
N 1468.42 25.0739 9.781639999999999 3852 1926
N 1529.62 81.04470000000001 31.1085 3853 1927
N 1528.92 80.48350000000001 30.4202 3854 1927
N 1456.49 146.859 143.062 3855 1928
N 1455.73 147.216 143.781 3856 1928
N 1375.23 146.882 110.695 3857 1929
N 1376.07 147.624 110.599 3858 1929
N 1405.72 120.174 100.337 3859 1930
N 1406.42 119.536 99.7483 3860 1930
N 1387.64 5.1681 83.3402 3861 1931
N 1387.14 6.14155 83.6095 3862 1931
N 1450.67 75.6268 8.37588 3863 1932
N 1450.93 76.1176 9.33159 3864 1932
N 1378.82 49.8214 148.611 3865 1933
N 1379.44 50.6286 148.107 3866 1933
N 1416.65 42.299 111.825 3867 1934
N 1415.83 42.0622 111.127 3868 1934
N 1398.74 14.7024 32.9177 3869 1935
N 1397.97 15.4873 33.0939 3870 1935
N 1353.06 101.521 55.4074 3871 1936
N 1353.88 101.829 56.1381 3872 1936
N 1342.18 31.2134 29.1612 3873 1937
N 1342.18 31.7422 30.1531 3874 1937
N 1354.4 134.52 134.942 3875 1938
N 1355.39 135.014 134.799 3876 1938
N 1457.86 28.4533 65.76390000000001 3877 1939
N 1457.38 27.4527 65.7636 3878 1939
N 1393.7 5.59508 0.289382 3879 1940
N 1393.19 4.62551 0.0370869 3880 1940
N 1523.34 139.234 86.07040000000001 3881 1941
N 1524.04 139.05 85.2246 3882 1941
N 1368 58.3146 130.702 3883 1942
N 1368.41 57.6865 131.522 3884 1942
N 1348.64 144.781 71.8302 3885 1943
N 1349.56 144.905 72.4867 3886 1943
N 1394.83 23.7081 32.689 3887 1944
N 1395.73 23.3636 33.2946 3888 1944
N 1440.78 47.052 131.064 3889 1945
N 1440.9 46.8234 132.146 3890 1945
N 1416.45 84.75709999999999 16.4604 3891 1946
N 1416.43 84.3138 15.4583 3892 1946
N 1342.18 1.90337 88.2431 3893 1947
N 1342.18 2.5405 89.1365 3894 1947
N 1627.6 118.222 137.898 3895 1948
N 1628.56 117.716 137.651 3896 1948
N 1449.7 105.579 136.381 3897 1949
N 1448.74 105.782 135.837 3898 1949
N 1429.75 58.0081 50.6663 3899 1950
N 1428.73 58.4389 50.494 3900 1950
N 1426.55 105.655 137.931 3901 1951
N 1427.29 104.949 138.403 3902 1951
N 1419.54 140.227 62.5083 3903 1952
N 1420.21 139.402 62.1657 3904 1952
N 1404.96 123.914 3.03781 3905 1953
N 1405.23 123.772 4.10148 3906 1953
N 1442.62 49.6179 40.468 3907 1954
N 1443.21 49.6431 41.423 3908 1954
N 1366.83 27.7834 84.28579999999999 3909 1955
N 1367.21 26.7563 84.113 3910 1955
N 1342.18 126.711 123.46 3911 1956
N 1342.18 126.237 124.439 3912 1956
N 1360.44 65.4709 149.063 3913 1957
N 1361.28 66.20269999999999 148.909 3914 1957
N 1536.68 73.8147 129.219 3915 1958
N 1535.57 73.8907 129.224 3916 1958
N 1495.46 92.7587 113.601 3917 1959
N 1494.37 92.7411 113.868 3918 1959
N 1395.15 133.082 135.764 3919 1960
N 1395.16 133.356 136.858 3920 1960
N 1454.37 147.553 31.5098 3921 1961
N 1455.1 148.076 32.1696 3922 1961
N 1400.88 43.2653 130.062 3923 1962
N 1401.62 43.9971 129.59 3924 1962
N 1362.28 92.762 110.212 3925 1963
N 1361.75 93.1741 111.11 3926 1963
N 1368.4 141.468 123.807 3927 1964
N 1367.66 140.821 123.314 3928 1964
N 1495.25 140.434 130.693 3929 1965
N 1495.5 140.805 129.677 3930 1965
N 1372.4 41.1812 149.145 3931 1966
N 1371.81 40.2675 148.917 3932 1966
N 1407.44 128.293 9.43108 3933 1967
N 1406.74 127.793 10.149 3934 1967
N 1543.13 123.02 68.3253 3935 1968
N 1544.18 123.368 68.4913 3936 1968
N 1401.44 61.9271 101.343 3937 1969
N 1400.31 62.0021 101.363 3938 1969
N 1363.22 7.4022 91.1811 3939 1970
N 1363.47 8.30645 91.7747 3940 1970
N 1380.58 126.982 46.8481 3941 1971
N 1381.67 127.02 47.0657 3942 1971
N 1429.41 126.246 92.5688 3943 1972
N 1428.71 127.116 92.6795 3944 1972
N 1421.69 40.9361 26.3687 3945 1973
N 1421.78 40.2132 27.2035 3946 1973
N 1391.63 33.4232 148.507 3947 1974
N 1391.41 34.3109 149.136 3948 1974
N 1538.47 42.8907 9.388170000000001 3949 1975
N 1538.08 42.9765 8.32586 3950 1975
N 1539.4 9.27872 103.835 3951 1976
N 1540.09 9.05091 104.718 3952 1976
N 1687.14 124.81 112.975 3953 1977
N 1686.88 125.22 113.992 3954 1977
N 1371.09 121.027 40.7449 3955 1978
N 1372.02 121.487 40.3177 3956 1978
N 1450.92 130.433 54.4375 3957 1979
N 1450.51 130.496 53.3956 3958 1979
N 1435.81 55.293 99.99379999999999 3959 1980
N 1434.95 54.6316 100.206 3960 1980
N 1387.28 30.4153 132.478 3961 1981
N 1386.89 31.1822 133.19 3962 1981
N 1578.9 98.5831 76.49039999999999 3963 1982
N 1579.24 99.3066 75.7345 3964 1982
N 1528.88 58.663 116.863 3965 1983
N 1528.79 57.5636 117.091 3966 1983
N 1369.16 118.589 15.4145 3967 1984
N 1369.32 117.476 15.2965 3968 1984
N 1356.16 55.742 11.9384 3969 1985
N 1355.34 56.4986 11.8278 3970 1985
N 1398.95 24.1159 8.36978 3971 1986
N 1399.48 25.0339 8.03664 3972 1986
N 1449.88 88.6846 114.64 3973 1987
N 1449.22 89.55540000000001 114.916 3974 1987
N 1351.14 27.9874 100.991 3975 1988
N 1351.57 27.468 100.113 3976 1988
N 1409.63 142.042 20.4738 3977 1989
N 1409.15 142.962 20.0501 3978 1989
N 1366.87 115.458 59.6138 3979 1990
N 1367.13 116.197 58.8387 3980 1990
N 1471.74 27.9808 86.2525 3981 1991
N 1471.67 28.1025 87.3702 3982 1991
N 1342.18 124.692 96.2328 3983 1992
N 1342.18 125.487 95.4787 3984 1992
N 1509.68 4.31521 145.649 3985 1993
N 1509.83 4.27035 144.543 3986 1993
N 1413.64 137.467 30.5108 3987 1994
N 1414.36 138.248 30.8665 3988 1994
N 1414.33 30.8888 91.0288 3989 1995
N 1414.66 31.336 90.0647 3990 1995
N 1368.69 28.3681 126.896 3991 1996
N 1367.94 29.0436 126.377 3992 1996
N 1405.13 52.5398 44.0891 3993 1997
N 1404.3 53.2374 43.7709 3994 1997
N 1364.17 111.949 134.108 3995 1998
N 1363.17 111.512 133.858 3996 1998
N 1342.18 40.567 116.897 3997 1999
N 1342.18 40.9566 115.835 3998 1999
N 1453.8 57.0404 111.621 3999 2000
N 1454.55 57.584 110.97 4000 2000
N 1440.11 95.6263 84.6713 4001 2001
N 1440.3 96.73439999999999 84.7589 4002 2001
N 1430.51 38.0939 88.4363 4003 2002
N 1430.02 37.1897 88.9023 4004 2002
N 1659.77 112.595 103.939 4005 2003
N 1659.34 112.594 104.972 4006 2003
N 1463.8 48.1605 58.6449 4007 2004
N 1464.46 47.5091 59.3042 4008 2004
N 1449.3 123.166 90.9477 4009 2005
N 1450.27 123.033 91.49120000000001 4010 2005
N 1611.12 62.0781 105.964 4011 2006
N 1612.03 61.8294 106.57 4012 2006
N 1397.31 38.9713 48.2119 4013 2007
N 1397.34 37.9687 47.7408 4014 2007
N 1372.4 98.7171 128.408 4015 2008
N 1373.25 98.9936 127.739 4016 2008
N 1393.62 47.2376 138.553 4017 2009
N 1393.41 46.4574 139.326 4018 2009
N 1592.08 131.017 89.506 4019 2010
N 1591.43 130.562 88.7186 4020 2010
N 1342.18 107.582 85.5269 4021 2011
N 1342.18 107.603 86.6551 4022 2011
N 1618.83 10.9086 62.9842 4023 2012
N 1619.71 11.3856 62.4823 4024 2012
N 1506.5 48.6409 133.728 4025 2013
N 1505.89 47.7262 133.974 4026 2013
N 1448.87 70.68380000000001 70.0984 4027 2014
N 1448.52 71.3548 70.92919999999999 4028 2014
N 1397.29 69.0314 17.0914 4029 2015
N 1397.79 68.6005 16.1862 4030 2015
N 1404.28 83.1121 36.8873 4031 2016
N 1404.6 83.95 37.5734 4032 2016
N 1378.16 99.9525 53.2738 4033 2017
N 1377.56 100.299 52.3552 4034 2017
N 1391.27 109.961 124.938 4035 2018
N 1391.74 109.028 124.532 4036 2018
N 1474.93 65.7724 2.75942 4037 2019
N 1475.74 66.3995 3.20578 4038 2019
N 1420.51 38.2616 68.3635 4039 2020
N 1420.23 38.2901 69.44629999999999 4040 2020
N 1398.5 119.899 100.447 4041 2021
N 1398.2 118.97 100.986 4042 2021
N 1483.28 141.03 50.0065 4043 2022
N 1482.6 140.956 49.1054 4044 2022
N 1401.04 32.2783 109.036 4045 2023
N 1401.8 32.7071 108.331 4046 2023
N 1439.6 50.3469 39.5638 4047 2024
N 1439.43 51.0726 40.44 4048 2024
N 1351.65 133.388 97.417 4049 2025
N 1351.43 134.42 97.0818 4050 2025
N 1394.27 15.2058 123.892 4051 2026
N 1393.29 15.674 123.617 4052 2026
N 1351.27 17.3913 83.8224 4053 2027
N 1351.61 18.1392 83.06529999999999 4054 2027
N 1342.18 149.192 125.609 4055 2028
N 1342.18 148.838 124.503 4056 2028
N 1386.09 76.325 65.6356 4057 2029
N 1385.73 77.2636 66.1892 4058 2029
N 1380.04 17.8843 15.8809 4059 2030
N 1379.12 17.5227 15.3327 4060 2030
N 1355.11 56.9722 37.6609 4061 2031
N 1355.9 57.754 37.6349 4062 2031
N 1355.38 89.599 6.03643 4063 2032
N 1355.33 88.6942 6.69148 4064 2032
N 1362.22 4.79495 38.6367 4065 2033
N 1362 5.76903 38.1088 4066 2033
N 1558.05 136.389 96.4662 4067 2034
N 1557.26 135.892 95.8657 4068 2034
N 1410.63 135.383 91.575 4069 2035
N 1409.82 135.705 90.86190000000001 4070 2035
N 1482.2 137.21 48.7795 4071 2036
N 1482.6 136.227 48.4219 4072 2036
N 1353.6 74.8177 83.32940000000001 4073 2037
N 1353.6 74.89149999999999 82.209 4074 2037
N 1375.14 112.719 52.9674 4075 2038
N 1375.7 111.753 52.9863 4076 2038
N 1421.56 106.755 53.6342 4077 2039
N 1421.35 106.174 54.5528 4078 2039
N 1614.87 117.823 19.8543 4079 2040
N 1614.68 117.144 18.9832 4080 2040
N 1491.36 122.631 47.0345 4081 2041
N 1491.11 122.583 45.9476 4082 2041
N 1414.88 141.385 103.011 4083 2042
N 1415.89 141.436 102.525 4084 2042
N 1399.25 58.9669 103.894 4085 2043
N 1399 59.1138 102.814 4086 2043
N 1353.87 33.475 59.3905 4087 2044
N 1353.8 33.7883 60.4732 4088 2044
N 1397.79 80.8176 106.206 4089 2045
N 1398.51 81.6786 106.257 4090 2045
N 1342.18 30.6087 88.4049 4091 2046
N 1342.18 30.8641 89.50369999999999 4092 2046
N 1587.78 149.157 90.7033 4093 2047
N 1587.21 148.473 90.0278 4094 2047
N 1445.13 49.7659 25.0184 4095 2048
N 1444.57 50.3397 24.2132 4096 2048
N 1342.18 29.6158 135.454 4097 2049
N 1342.18 28.6631 134.87 4098 2049
N 1342.18 130.357 52.819 4099 2050
N 1342.18 131.24 52.2498 4100 2050
N 1372.51 147.195 64.36360000000001 4101 2051
N 1372.27 147.863 63.4793 4102 2051
N 1452.04 56.9752 63.0907 4103 2052
N 1452.74 56.1364 63.3965 4104 2052
N 1342.18 135.976 21.618 4105 2053
N 1342.18 136.863 22.3414 4106 2053
N 1552.91 71.07080000000001 19.0519 4107 2054
N 1553.82 71.617 19.3755 4108 2054
N 1342.18 44.5934 118.489 4109 2055
N 1342.18 44.896 119.572 4110 2055
N 1427.22 59.2547 40.9068 4111 2056
N 1426.43 58.4727 41.0092 4112 2056
N 1342.18 33.5071 58.565 4113 2057
N 1342.18 34.5845 58.6748 4114 2057
N 1443.55 138.225 125.828 4115 2058
N 1443.83 137.291 126.373 4116 2058
N 1377.54 75.6093 143.968 4117 2059
N 1378.48 75.1206 143.604 4118 2059
N 1551.81 126.187 132.72 4119 2060
N 1552.68 126.91 132.706 4120 2060
N 1441.93 76.70350000000001 60.5723 4121 2061
N 1441 77.2341 60.9566 4122 2061
N 1342.18 132.42 119.787 4123 2062
N 1342.18 133.54 119.969 4124 2062
N 1342.18 69.9935 118.509 4125 2063
N 1342.18 69.7735 119.597 4126 2063
N 1438.32 145.512 98.2039 4127 2064
N 1437.53 144.931 98.7704 4128 2064
N 1465.52 69.96510000000001 100.399 4129 2065
N 1465.09 70.8019 101.005 4130 2065
N 1442.84 91.77249999999999 110.381 4131 2066
N 1442.23 91.86060000000001 111.326 4132 2066
N 1466.49 147.984 81.2166 4133 2067
N 1466.49 149.044 81.6126 4134 2067
N 1345.09 105.202 54.0016 4135 2068
N 1344.3 105.676 54.6635 4136 2068
N 1465.8 8.290509999999999 88.8338 4137 2069
N 1464.95 8.88259 89.2385 4138 2069
N 1456.91 8.574389999999999 136.898 4139 2070
N 1457.23 8.843669999999999 135.852 4140 2070
N 1403.39 95.5224 63.8485 4141 2071
N 1402.39 95.1931 63.523 4142 2071
N 1636.79 11.077 20.5968 4143 2072
N 1636.45 12.0732 20.9749 4144 2072
N 1525.78 127.775 82.6129 4145 2073
N 1526.63 127.845 83.3306 4146 2073
N 1487.32 54.2202 74.6463 4147 2074
N 1486.66 54.8926 75.2491 4148 2074
N 1349.64 45.5357 13.4138 4149 2075
N 1348.75 46.1719 13.2885 4150 2075
N 1342.18 13.3312 11.6458 4151 2076
N 1342.18 13.8102 12.6333 4152 2076
N 1545.09 58.4932 17.2616 4153 2077
N 1546.07 58.4845 17.7979 4154 2077
N 1486.99 38.9872 102.202 4155 2078
N 1488.08 38.876 102.356 4156 2078
N 1431.66 76.3364 53.9928 4157 2079
N 1430.87 77.1056 53.7419 4158 2079
N 1440.97 50.2583 82.1837 4159 2080
N 1439.9 50.5866 82.0698 4160 2080
N 1342.18 118.238 85.7218 4161 2081
N 1342.18 119.241 86.29340000000001 4162 2081
N 1352.09 63.8597 38.2552 4163 2082
N 1352.51 64.5317 39.037 4164 2082
N 1514.5 84.58880000000001 96.7248 4165 2083
N 1515.44 85.09010000000001 97.0647 4166 2083
N 1342.18 20.3255 45.6778 4167 2084
N 1342.18 19.6514 46.562 4168 2084
N 1424.2 10.7387 41.3893 4169 2085
N 1424.47 9.881080000000001 40.7192 4170 2085
N 1404.11 2.85734 98.7029 4171 2086
N 1405.17 3.13642 98.5338 4172 2086
N 1355.9 24.9198 93.52809999999999 4173 2087
N 1355.06 24.663 92.8462 4174 2087
N 1351.67 112.392 102.177 4175 2088
N 1351.57 112.693 103.243 4176 2088
N 1678.11 87.71769999999999 14.093 4177 2089
N 1677.13 88.25960000000001 14.0636 4178 2089
N 1352.87 16.3627 123.952 4179 2090
N 1353.64 17.1592 123.817 4180 2090
N 1400.03 128.666 44.5025 4181 2091
N 1399.58 129.656 44.2654 4182 2091
N 1342.18 67.1472 8.61308 4183 2092
N 1342.18 67.7713 9.574009999999999 4184 2092
N 1342.18 127.655 107.209 4185 2093
N 1342.18 126.578 106.956 4186 2093
N 1408.44 120.055 72.83710000000001 4187 2094
N 1407.53 120.677 73.00320000000001 4188 2094
N 1348.99 42.5151 44.5045 4189 2095
N 1348.22 42.3593 45.3194 4190 2095
N 1446.36 76.49290000000001 149.141 4191 2096
N 1445.76 77.07599999999999 149.89 4192 2096
N 1505.68 111.098 81.6207 4193 2097
N 1504.67 111.418 81.9984 4194 2097
N 1416.15 137.93 110.212 4195 2098
N 1416.5 137.042 110.77 4196 2098
N 1356.54 65.096 82.3866 4197 2099
N 1355.65 65.7221 82.6542 4198 2099
N 1520.44 105.514 79.95610000000001 4199 2100
N 1519.88 105.717 79.0278 4200 2100
N 1390.31 7.28449 125.107 4201 2101
N 1389.56 6.85542 124.424 4202 2101
N 1405.35 73.30589999999999 50.1504 4203 2102
N 1405.28 73.10380000000001 51.2509 4204 2102
N 1347.48 91.29649999999999 98.0094 4205 2103
N 1346.38 91.1588 98.1602 4206 2103
N 1494.73 47.54 43.7195 4207 2104
N 1494.93 47.7412 42.6357 4208 2104
N 1432.12 129.046 132.336 4209 2105
N 1431 128.927 132.553 4210 2105
N 1386 90.2589 38.3129 4211 2106
N 1385.76 90.91079999999999 39.2047 4212 2106
N 1342.18 38.6993 57.9195 4213 2107
N 1342.18 38.5721 59.0503 4214 2107
N 1342.18 108.032 110.115 4215 2108
N 1342.18 108.484 111.11 4216 2108
N 1616 141.757 115.196 4217 2109
N 1614.99 141.484 114.791 4218 2109
N 1349.98 26.9473 54.9698 4219 2110
N 1349.1 27.2087 55.5813 4220 2110
N 1370.64 18.4011 0.486013 4221 2111
N 1369.88 18.504 1.30935 4222 2111
N 1464.87 99.8456 90.879 4223 2112
N 1463.98 99.51049999999999 91.45140000000001 4224 2112
N 1669.74 74.96129999999999 99.2739 4225 2113
N 1668.9 74.4479 98.752 4226 2113
N 1342.18 1.87875 144.147 4227 2114
N 1342.18 1.099 144.968 4228 2114
N 1497.24 116.648 54.2547 4229 2115
N 1497.19 116.273 55.2839 4230 2115
N 1532.54 137.454 102.273 4231 2116
N 1532.12 136.961 101.364 4232 2116
N 1399.98 38.3752 9.48429 4233 2117
N 1398.93 38.6718 9.28636 4234 2117
N 1446.18 91.8571 7.16655 4235 2118
N 1446.2 90.8121 6.77439 4236 2118
N 1652.71 33.9349 122.439 4237 2119
N 1652.77 32.8839 122.05 4238 2119
N 1433.75 37.328 115.343 4239 2120
N 1434.26 36.3939 115.746 4240 2120
N 1594.34 91.04559999999999 115.078 4241 2121
N 1593.87 91.4384 114.142 4242 2121
N 1454.51 139.838 9.15325 4243 2122
N 1454.6 138.723 8.993460000000001 4244 2122
N 1541.96 122 127.632 4245 2123
N 1541.45 121.296 126.928 4246 2123
N 1413.17 20.6598 61.1995 4247 2124
N 1413.98 21.2102 61.7149 4248 2124
N 1382.68 128.559 86.616 4249 2125
N 1382.14 128.597 85.6705 4250 2125
N 1412.85 16.0137 116.252 4251 2126
N 1412.27 15.5514 117.105 4252 2126
N 1454.46 89.09610000000001 113.275 4253 2127
N 1455.4 89.18049999999999 113.88 4254 2127
N 1539.95 116.588 68.6086 4255 2128
N 1540.03 116.108 67.596 4256 2128
N 1412.35 141.016 92.6544 4257 2129
N 1412.69 141.023 93.73909999999999 4258 2129
N 1435.74 85.9653 143.631 4259 2130
N 1435.79 86.959 144.146 4260 2130
N 1402.92 96.688 41.8123 4261 2131
N 1404.01 96.47110000000001 41.871 4262 2131
N 1382.02 64.2508 11.8113 4263 2132
N 1382.4 64.6686 12.7798 4264 2132
N 1350.84 40.8383 122.244 4265 2133
N 1351.53 41.7273 122.262 4266 2133
N 1544.35 56.337 121.77 4267 2134
N 1544.81 57.1834 121.188 4268 2134
N 1384.68 10.5894 64.25360000000001 4269 2135
N 1384.6 9.488060000000001 64.0568 4270 2135
N 1442.96 9.33413 119.824 4271 2136
N 1442.16 9.938179999999999 120.326 4272 2136
N 1384.2 85.2015 148.075 4273 2137
N 1385.09 85.8609 148.294 4274 2137
N 1378.72 81.0365 108.828 4275 2138
N 1378.15 80.09059999999999 108.888 4276 2138
N 1653.89 23.0169 64.744 4277 2139
N 1652.93 22.6493 64.3049 4278 2139
N 1342.18 102.29 135.966 4279 2140
N 1342.18 102.039 134.894 4280 2140
N 1342.18 86.3138 52.5428 4281 2141
N 1342.18 85.4034 51.9431 4282 2141
N 1468.01 88.6678 82.7475 4283 2142
N 1468.35 89.6754 83.1033 4284 2142
N 1517.36 141.926 37.8393 4285 2143
N 1518.42 142.153 37.4921 4286 2143
N 1440.13 85.0391 146.536 4287 2144
N 1439.88 83.9683 146.333 4288 2144
N 1514.58 57.6173 133.409 4289 2145
N 1515.27 58.0918 134.157 4290 2145
N 1406.94 87.75320000000001 45.0765 4291 2146
N 1407.83 88.17700000000001 45.604 4292 2146
N 1653.7 40.7622 100.326 4293 2147
N 1652.61 40.5297 100.155 4294 2147
N 1552.79 74.962 100.144 4295 2148
N 1553.67 75.6052 100.378 4296 2148
N 1440.6 74.7984 139.121 4297 2149
N 1441.31 75.41540000000001 139.729 4298 2149
N 1370.2 140.267 51.2044 4299 2150
N 1370.14 139.468 52.0172 4300 2150
N 1441.38 106.383 48.1284 4301 2151
N 1441.44 105.833 47.154 4302 2151
N 1423.5 58.7022 55.2484 4303 2152
N 1423.12 58.297 56.2089 4304 2152
N 1377.94 84.4896 114.565 4305 2153
N 1378.88 84.8295 115.071 4306 2153
N 1416.78 14.4316 14.3844 4307 2154
N 1417.25 13.5885 14.9503 4308 2154
N 1510.95 135.174 135.783 4309 2155
N 1511.38 135.23 134.758 4310 2155
N 1412.6 144.152 138.749 4311 2156
N 1411.83 144.074 139.551 4312 2156
N 1408.94 83.6686 28.4367 4313 2157
N 1409.24 84.5843 27.8662 4314 2157
N 1406.89 95.6711 149.397 4315 2158
N 1406.18 95.8909 148.546 4316 2158
N 1546.45 108.192 3.3573 4317 2159
N 1547.31 107.952 2.67715 4318 2159
N 1405.62 74.5669 94.2612 4319 2160
N 1406.35 74.116 94.97499999999999 4320 2160
N 1402.43 114.846 122.602 4321 2161
N 1401.62 114.718 121.826 4322 2161
N 1435.72 80.8617 100.312 4323 2162
N 1434.98 80.33540000000001 99.6998 4324 2162
N 1398.62 38.5949 38.6267 4325 2163
N 1397.68 38.8289 38.0635 4326 2163
N 1342.18 139.811 9.112730000000001 4327 2164
N 1342.18 138.698 8.84601 4328 2164
N 1438.23 40.9434 75.80459999999999 4329 2165
N 1438.87 40.4794 76.6063 4330 2165
N 1531.63 69.76990000000001 13.5083 4331 2166
N 1531.48 70.8505 13.2791 4332 2166
N 1401.53 117.239 64.9328 4333 2167
N 1400.62 116.7 64.5929 4334 2167
N 1342.18 45.6897 127.852 4335 2168
N 1342.18 46.1076 128.89 4336 2168
N 1533.53 30.1105 99.6324 4337 2169
N 1534.41 29.7582 99.0445 4338 2169
N 1388.65 141.172 148.965 4339 2170
N 1388.81 140.151 149.389 4340 2170
N 1357.06 10.9416 131.875 4341 2171
N 1358.16 11.1557 131.939 4342 2171
N 1778.4 136.655 101.754 4343 2172
N 1777.44 136.736 101.2 4344 2172
N 1388.7 83.7668 116.411 4345 2173
N 1389.17 82.98909999999999 117.088 4346 2173
N 1478.29 6.83436 148.139 4347 2174
N 1479.12 7.52465 147.861 4348 2174
N 1458.87 139.321 44.6565 4349 2175
N 1459.79 139.255 45.268 4350 2175
N 1392.43 119.143 134.335 4351 2176
N 1393.48 119.414 134.602 4352 2176
N 1465.22 51.5451 110.655 4353 2177
N 1466.29 51.7616 110.5 4354 2177
N 1342.18 78.80110000000001 142.771 4355 2178
N 1342.18 78.07389999999999 143.59 4356 2178
N 1368.87 121.222 62.7928 4357 2179
N 1368.74 120.14 62.4866 4358 2179
N 1342.18 7.94767 96.4945 4359 2180
N 1342.18 7.3867 95.4995 4360 2180
N 1463.32 79.0509 28.7791 4361 2181
N 1462.28 79.2457 28.3998 4362 2181
N 1617.29 76.8634 92.2456 4363 2182
N 1617.63 76.04340000000001 92.91379999999999 4364 2182
N 1399.68 112.744 128.746 4365 2183
N 1399.76 113.242 129.749 4366 2183
N 1402.95 71.91240000000001 116.564 4367 2184
N 1402.05 71.3289 116.897 4368 2184
N 1370.72 129.633 13.1809 4369 2185
N 1370.22 128.657 12.9903 4370 2185
N 1488.28 1.08364 8.35458 4371 2186
N 1487.22 1.24094 7.98127 4372 2186
N 1467.98 121.926 15.7408 4373 2187
N 1467.72 123.019 15.9047 4374 2187
N 1410.83 31.4868 87.7495 4375 2188
N 1410.47 30.6229 87.13330000000001 4376 2188
N 1411.82 55.3618 46.4358 4377 2189
N 1411.07 56.1415 46.053 4378 2189
N 1385.21 29.9989 106.126 4379 2190
N 1385.56 31.0525 106.226 4380 2190
N 1408.38 61.9221 146.903 4381 2191
N 1408.19 61.4716 147.91 4382 2191
N 1589.16 78.3767 67.7403 4383 2192
N 1589.19 78.3869 66.62479999999999 4384 2192
N 1342.18 83.9798 129.298 4385 2193
N 1342.18 85.0449 128.958 4386 2193
N 1445.75 138.15 31.0599 4387 2194
N 1446.64 137.492 31.1214 4388 2194
N 1438.31 74.9894 19.9705 4389 2195
N 1437.55 75.3365 19.2204 4390 2195
N 1400.87 9.378270000000001 139.182 4391 2196
N 1401 10.4593 138.954 4392 2196
N 1512.76 58.6102 149.213 4393 2197
N 1512.35 59.4523 148.621 4394 2197
N 1359.47 43.3039 32.4696 4395 2198
N 1359.69 43.8187 31.4992 4396 2198
N 1516.37 77.97280000000001 135.543 4397 2199
N 1516.41 77.2812 136.419 4398 2199
N 1342.18 52.1565 82.9166 4399 2200
N 1342.18 51.668 81.90089999999999 4400 2200
N 1418.14 77.1662 114.249 4401 2201
N 1417.39 77.9928 114.161 4402 2201
N 1426.97 89.7765 147.297 4403 2202
N 1427.61 89.7178 148.213 4404 2202
N 1615.37 42.8889 120.633 4405 2203
N 1615.55 41.8774 121.078 4406 2203
N 1442.12 93.5001 87.7341 4407 2204
N 1441.33 93.60550000000001 88.5492 4408 2204
N 1517.07 104.303 32.1313 4409 2205
N 1516.1 103.729 31.9543 4410 2205
N 1455.64 147.276 94.1824 4411 2206
N 1455.74 148.055 93.3777 4412 2206
N 1561.96 63.7664 100.498 4413 2207
N 1562.12 63.0189 101.314 4414 2207
N 1524 76.70959999999999 96.4898 4415 2208
N 1523.44 76.729 97.4652 4416 2208
N 1506.99 11.1721 135.007 4417 2209
N 1507.7 11.0683 134.149 4418 2209
N 1367.32 125.425 83.5228 4419 2210
N 1366.5 124.685 83.74379999999999 4420 2210
N 1561.27 53.9448 117.115 4421 2211
N 1561.07 53.9029 118.221 4422 2211
N 1441.14 27.5436 99.124 4423 2212
N 1440.22 27.3115 99.74469999999999 4424 2212
N 1570.03 147.011 122.236 4425 2213
N 1570.67 147.714 122.822 4426 2213
N 1460.48 117.662 71.87009999999999 4427 2214
N 1460.22 117.193 72.8447 4428 2214
N 1350.63 53.9893 27.0311 4429 2215
N 1350.01 54.3269 26.1589 4430 2215
N 1507.35 128.795 115.331 4431 2216
N 1507.65 128.099 114.495 4432 2216
N 1344.7 92.5059 32.9502 4433 2217
N 1345.03 91.471 32.7175 4434 2217
N 1469.91 35.3846 1.08902 4435 2218
N 1468.93 35.9127 0.952904 4436 2218
N 1388.59 78.6058 116.054 4437 2219
N 1389.13 77.72029999999999 116.489 4438 2219
N 1571.75 74.9881 42.5882 4439 2220
N 1572.08 73.96259999999999 42.298 4440 2220
N 1484.29 9.18327 132.147 4441 2221
N 1484.24 9.46457 133.231 4442 2221
N 1514.03 123.368 71.8676 4443 2222
N 1514.83 124.01 71.4021 4444 2222
N 1397.23 123.201 97.25879999999999 4445 2223
N 1398 123.803 96.699 4446 2223
N 1467.01 124.252 122.241 4447 2224
N 1467.83 124.906 121.837 4448 2224
N 1642.41 65.39239999999999 75.0639 4449 2225
N 1642.47 66.30159999999999 75.71210000000001 4450 2225
N 1442.87 145.426 132.647 4451 2226
N 1442.2 145.672 131.788 4452 2226
N 1509.87 106.572 18.74 4453 2227
N 1509.03 105.995 19.1897 4454 2227
N 1351.18 132.902 141.35 4455 2228
N 1351.39 132 141.989 4456 2228
N 1656.91 36.8625 137.593 4457 2229
N 1657.94 36.7516 137.185 4458 2229
N 1402.7 72.9648 74.8378 4459 2230
N 1403.22 72.1859 75.4701 4460 2230
N 1374.21 93.38549999999999 146.824 4461 2231
N 1375.06 94.0938 146.708 4462 2231
N 1450.65 65.90000000000001 77.5318 4463 2232
N 1450.03 66.07040000000001 78.42449999999999 4464 2232
N 1342.18 73.2925 87.5771 4465 2233
N 1342.18 74.37260000000001 87.7114 4466 2233
N 1346.1 2.87602 15.3697 4467 2234
N 1346.73 2.20778 16.0012 4468 2234
N 1538.6 73.22929999999999 125.598 4469 2235
N 1538.47 72.123 125.625 4470 2235
N 1536.35 63.1381 100.737 4471 2236
N 1537.01 62.5877 101.463 4472 2236
N 1450.15 142.388 62.8895 4473 2237
N 1451.12 142.556 62.3583 4474 2237
N 1441.88 127.387 147.501 4475 2238
N 1441.93 126.491 146.837 4476 2238
N 1739.02 80.3064 9.98884 4477 2239
N 1739.31 79.94759999999999 11.0131 4478 2239
N 1603.17 75.26949999999999 101.169 4479 2240
N 1603.54 75.00320000000001 102.206 4480 2240
N 1419.57 49.062 108.71 4481 2241
N 1420.07 48.0654 108.823 4482 2241
N 1513.26 115.396 96.30589999999999 4483 2242
N 1512.16 115.248 96.1521 4484 2242
N 1409.75 146.543 32.9114 4485 2243
N 1409.86 145.42 32.8584 4486 2243
N 1446.14 131.351 87.9089 4487 2244
N 1445.15 130.991 87.5187 4488 2244
N 1528.47 78.06019999999999 50.7103 4489 2245
N 1527.77 77.2525 50.3641 4490 2245
N 1351.78 93.09829999999999 58.7282 4491 2246
N 1352.61 93.62569999999999 58.1691 4492 2246
N 1357.64 37.7328 50.5572 4493 2247
N 1357.16 37.7189 51.5619 4494 2247
N 1447.56 110.731 74.49169999999999 4495 2248
N 1446.84 111.347 75.0752 4496 2248
N 1379.54 132.85 35.7639 4497 2249
N 1380.38 132.311 35.2497 4498 2249
N 1378.67 44.4291 116.734 4499 2250
N 1377.73 44.9515 116.424 4500 2250
N 1375.93 146.365 27.5687 4501 2251
N 1376.49 145.495 27.1674 4502 2251
N 1438.96 113 133.461 4503 2252
N 1439.57 112.478 134.215 4504 2252
N 1495.43 136.433 144.469 4505 2253
N 1496.34 136.536 145.096 4506 2253
N 1456.05 104.666 92.568 4507 2254
N 1456.91 104.154 93.0532 4508 2254
N 1529.99 11.2244 25.4573 4509 2255
N 1529.49 11.6631 24.5591 4510 2255
N 1348.35 110.899 31.1687 4511 2256
N 1347.37 110.357 31.0974 4512 2256
N 1348.76 99.9897 37.1163 4513 2257
N 1348.88 100.829 37.8488 4514 2257
N 1383.11 13.1149 35.4085 4515 2258
N 1383.29 13.7358 36.3223 4516 2258
N 1491.24 70.9333 106.074 4517 2259
N 1491.79 71.8259 105.722 4518 2259
N 1652.6 31.305 72.8676 4519 2260
N 1652.11 31.9511 72.0865 4520 2260
N 1422.99 28.1116 135.76 4521 2261
N 1422.01 28.0876 136.301 4522 2261
N 1381.1 66.47020000000001 143.056 4523 2262
N 1381.56 66.5441 144.079 4524 2262
N 1360.73 60.117 40.9468 4525 2263
N 1359.84 60.652 41.3547 4526 2263
N 1371.08 33.9469 125.517 4527 2264
N 1371.26 32.8762 125.799 4528 2264
N 1352.56 96.17789999999999 146.138 4529 2265
N 1352.45 95.065 146.074 4530 2265
N 1342.18 82.2364 107.782 4531 2266
N 1342.18 81.09699999999999 107.773 4532 2266
N 1553.37 101.992 116.49 4533 2267
N 1554.06 102.256 115.649 4534 2267
N 1397.24 119.936 17.9466 4535 2268
N 1397.58 120.585 17.0969 4536 2268
N 1342.18 114.553 51.7613 4537 2269
N 1342.18 113.467 51.5368 4538 2269
N 1359.01 89.3916 66.4272 4539 2270
N 1359.13 88.3165 66.2105 4540 2270
N 1437.64 20.5764 69.6211 4541 2271
N 1438.35 21.1763 70.25409999999999 4542 2271
N 1427.63 80.6992 121.876 4543 2272
N 1427.49 80.4729 120.781 4544 2272
N 1397.78 107.321 23.8616 4545 2273
N 1396.85 107.019 24.4074 4546 2273
N 1386.8 29.0112 110.626 4547 2274
N 1386.69 30.1102 110.855 4548 2274
N 1509.75 144.121 130.924 4549 2275
N 1509.55 144.275 129.822 4550 2275
N 1342.18 90.9302 35.3098 4551 2276
N 1342.18 92.0329 35.359 4552 2276
N 1479.9 85.09480000000001 92.0714 4553 2277
N 1480.25 84.8976 93.1202 4554 2277
N 1481.81 115.595 9.961930000000001 4555 2278
N 1482.85 115.393 9.651859999999999 4556 2278
N 1507.99 104.322 137.423 4557 2279
N 1507.46 105.078 138.042 4558 2279
N 1351.37 42.175 30.8885 4559 2280
N 1351.81 42.646 30 4560 2280
N 1357.04 62.2103 140.28 4561 2281
N 1356.28 61.4767 139.936 4562 2281
N 1559.05 76.50279999999999 5.37035 4563 2282
N 1559.55 77.4803 5.20782 4564 2282
N 1592.3 22.7875 113.902 4565 2283
N 1592.47 23.5381 114.716 4566 2283
N 1350.66 133.163 111.728 4567 2284
N 1351.29 133.071 112.636 4568 2284
N 1390.18 109.401 0.969784 4569 2285
N 1390.19 110.417 0.496485 4570 2285
N 1346.97 147.373 134.007 4571 2286
N 1345.84 147.403 134.003 4572 2286
N 1425.57 62.8061 35.8454 4573 2287
N 1425.78 63.8787 35.6172 4574 2287
N 1371.29 137.744 8.54392 4575 2288
N 1370.34 137.85 7.99413 4576 2288
N 1365.9 147.067 50.6634 4577 2289
N 1364.94 147.48 50.2584 4578 2289
N 1342.18 14.6402 133.338 4579 2290
N 1342.18 14.7126 132.193 4580 2290
N 1368.38 122.658 95.0787 4581 2291
N 1368.61 121.611 94.75069999999999 4582 2291
N 1506.67 76.4396 52.6321 4583 2292
N 1507.04 75.4041 52.424 4584 2292
N 1342.18 47.0925 133.665 4585 2293
N 1342.18 47.1482 134.775 4586 2293
N 1348.55 76.4113 2.32654 4587 2294
N 1347.73 75.7244 2.01543 4588 2294
N 1467.25 56.2666 24.2438 4589 2295
N 1467.88 55.5391 23.6797 4590 2295
N 1511.77 85.97620000000001 61.2211 4591 2296
N 1511.89 85.1914 60.4261 4592 2296
N 1425.9 93.9487 8.674160000000001 4593 2297
N 1426.7 94.06059999999999 7.88083 4594 2297
N 1608.37 121.89 68.4282 4595 2298
N 1607.71 121.252 67.7818 4596 2298
N 1438.45 76.0886 72.49290000000001 4597 2299
N 1439.4 75.5244 72.55589999999999 4598 2299
N 1376.16 91.6902 24.8375 4599 2300
N 1375.31 91.7936 25.5772 4600 2300
N 1525.51 148.958 98.4796 4601 2301
N 1524.83 148.095 98.2654 4602 2301
N 1352.2 82.1611 28.6191 4603 2302
N 1351.34 82.5898 29.2105 4604 2302
N 1632.25 127.285 65.357 4605 2303
N 1632.41 127.036 66.43859999999999 4606 2303
N 1364.9 128.783 35.9735 4607 2304
N 1365.51 128.905 36.9013 4608 2304
N 1342.18 13.8147 16.7713 4609 2305
N 1342.18 13.3658 17.8092 4610 2305
N 1448.61 103.225 6.62583 4611 2306
N 1448.11 103.877 7.37103 4612 2306
N 1381.84 58.4302 64.0051 4613 2307
N 1382.94 58.2873 64.2123 4614 2307
N 1426.95 105.591 146.668 4615 2308
N 1426.36 106.523 146.909 4616 2308
N 1469.11 73.2471 114.366 4617 2309
N 1469.14 74.1506 115.014 4618 2309
N 1380.49 77.9679 125.373 4619 2310
N 1380.43 77.2838 126.273 4620 2310
N 1452.84 67.377 3.14021 4621 2311
N 1452.95 67.66459999999999 4.23579 4622 2311
N 1653.33 141.363 113.798 4623 2312
N 1654.32 141.79 113.47 4624 2312
N 1497.99 12.1703 69.8998 4625 2313
N 1498.06 11.1792 70.42140000000001 4626 2313
N 1480.32 13.899 102.002 4627 2314
N 1480.81 12.9802 101.583 4628 2314
N 1445.48 133.275 70.3442 4629 2315
N 1445.13 133.805 69.4165 4630 2315
N 1608.86 109.705 30.5233 4631 2316
N 1609.02 109.048 29.6195 4632 2316
N 1525.27 103.688 133.061 4633 2317
N 1524.66 103.375 133.983 4634 2317
N 1366.38 129.091 21.7967 4635 2318
N 1366.11 130.041 22.2915 4636 2318
N 1439.97 45.1762 109.469 4637 2319
N 1439.45 46.1513 109.235 4638 2319
N 1541.32 87.0279 39.5159 4639 2320
N 1541.55 87.6174 40.4398 4640 2320
N 1582.68 31.6682 26.6332 4641 2321
N 1581.68 31.4283 26.2188 4642 2321
N 1491.84 123.498 19.7185 4643 2322
N 1491.43 122.912 18.8473 4644 2322
N 1484.37 140.204 71.63420000000001 4645 2323
N 1483.8 140.614 70.7593 4646 2323
N 1375.26 2.32194 86.5822 4647 2324
N 1374.93 2.80356 85.62560000000001 4648 2324
N 1349.43 29.0665 115.958 4649 2325
N 1350.17 28.5823 115.237 4650 2325
N 1496.92 129.134 65.3865 4651 2326
N 1497.37 129.708 66.244 4652 2326
N 1392.57 126.965 127.913 4653 2327
N 1391.64 127.598 127.885 4654 2327
N 1465.53 22.0973 41.6753 4655 2328
N 1466.49 21.6699 41.2732 4656 2328
N 1509.97 37.5795 41.9548 4657 2329
N 1509.68 37.4559 43.0313 4658 2329
N 1502.96 30.0727 105.417 4659 2330
N 1503.93 30.2805 104.898 4660 2330
N 1342.18 28.5779 55.5751 4661 2331
N 1342.18 28.7455 56.7011 4662 2331
N 1481.98 104.667 142.557 4663 2332
N 1482.96 104.629 143.105 4664 2332
N 1374.62 12.519 93.8955 4665 2333
N 1374.49 12.2348 92.81999999999999 4666 2333
N 1405.76 6.81767 30.0797 4667 2334
N 1405.57 6.12824 30.939 4668 2334
N 1395.45 7.5657 92.64960000000001 4669 2335
N 1396.55 7.42147 92.74850000000001 4670 2335
N 1482.25 90.1208 137.196 4671 2336
N 1482.09 91.2273 137.114 4672 2336
N 1367.75 22.8536 106.615 4673 2337
N 1367.43 21.8442 106.235 4674 2337
N 1573.45 26.6556 83.2598 4675 2338
N 1572.87 26.9111 84.16800000000001 4676 2338
N 1430.72 139.716 140.695 4677 2339
N 1430.37 139.495 139.646 4678 2339
N 1468.7 29.2308 14.0985 4679 2340
N 1468.05 29.3463 13.2 4680 2340
N 1373.01 87.4466 19.4482 4681 2341
N 1372.62 87.8516 18.4799 4682 2341
N 1452.82 37.0779 17.408 4683 2342
N 1452.17 36.3143 17.9056 4684 2342
N 1490.01 139.904 39.6019 4685 2343
N 1490.04 139.528 40.6377 4686 2343
N 1524.81 18.9455 44.2654 4687 2344
N 1525.4 19.2379 45.1698 4688 2344
N 1541.01 118.679 75.2996 4689 2345
N 1540.96 117.598 75.11069999999999 4690 2345
N 1377.64 25.5348 93.0772 4691 2346
N 1377.62 26.4369 93.7247 4692 2346
N 1409.42 64.134 143.571 4693 2347
N 1409.56 63.5029 144.484 4694 2347
N 1374.71 130.591 116.074 4695 2348
N 1374.86 129.482 115.961 4696 2348
N 1346.88 142.548 12.0333 4697 2349
N 1347.74 142.279 12.7868 4698 2349
N 1353.47 131.926 108.123 4699 2350
N 1353.17 131.645 109.164 4700 2350
N 1478.4 25.9823 129.471 4701 2351
N 1477.95 25.1264 128.921 4702 2351
N 1384.15 119.497 18.1461 4703 2352
N 1384.68 118.568 17.7849 4704 2352
N 1405.09 131.938 22.2911 4705 2353
N 1404.07 131.489 22.2763 4706 2353
N 1518.93 53.7821 24.1967 4707 2354
N 1519.76 54.1198 23.5081 4708 2354
N 1369 36.3356 130.525 4709 2355
N 1369.11 35.8375 129.527 4710 2355
N 1376.03 105.468 132.628 4711 2356
N 1375.03 105.021 132.92 4712 2356
N 1653.12 13.6967 136.73 4713 2357
N 1652.76 13.7443 135.665 4714 2357
N 1435.61 89.16 29.2528 4715 2358
N 1435.09 89.8228 29.9897 4716 2358
N 1485.35 5.93921 86.8592 4717 2359
N 1485.9 6.89311 87.0181 4718 2359
N 1417.51 99.7824 107.855 4719 2360
N 1417.35 98.8135 107.352 4720 2360
N 1369.17 15.335 138.974 4721 2361
N 1370.27 15.2559 139.199 4722 2361
N 1426.54 27.4865 43.6969 4723 2362
N 1425.47 27.6689 43.5403 4724 2362
N 1465.43 19.4027 70.6678 4725 2363
N 1464.51 18.7982 70.889 4726 2363
N 1375.53 149.996 135.696 4727 2364
N 1374.91 149.452 134.946 4728 2364
N 1500.24 129.678 79.9939 4729 2365
N 1500.55 130.538 79.35720000000001 4730 2365
N 1461.16 73.791 30.3591 4731 2366
N 1461.88 73.9143 29.4865 4732 2366
N 1347.11 78.631 102.596 4733 2367
N 1346.86 77.9521 103.431 4734 2367
N 1657.84 42.2724 64.6099 4735 2368
N 1658.29 42.4443 65.6138 4736 2368
N 1528.11 64.3877 62.6115 4737 2369
N 1529.05 64.7213 63.1076 4738 2369
N 1570.2 97.1105 25.0506 4739 2370
N 1569.28 97.745 24.9287 4740 2370
N 1469.5 13.644 27.2663 4741 2371
N 1469.82 14.7143 27.0666 4742 2371
N 1434.51 86.59439999999999 68.0421 4743 2372
N 1435.24 85.88249999999999 67.5929 4744 2372
N 1375.31 84.9885 18.1986 4745 2373
N 1374.99 84.0035 17.7898 4746 2373
N 1567.05 107.673 45.5126 4747 2374
N 1566.98 108.791 45.6528 4748 2374
N 1459.81 139.767 30.8713 4749 2375
N 1459.38 138.755 31.0497 4750 2375
N 1392.91 123.527 117.083 4751 2376
N 1392.17 123.381 117.908 4752 2376
N 1345.58 3.06655 23.1085 4753 2377
N 1346.49 3.41165 22.5463 4754 2377
N 1378.3 90.5423 19.5355 4755 2378
N 1379.38 90.5697 19.8742 4756 2378
N 1342.18 17.3855 97.7924 4757 2379
N 1342.18 16.3812 98.283 4758 2379
N 1415.74 3.70331 147.493 4759 2380
N 1415.8 4.65598 146.905 4760 2380
N 1367.27 121.249 15.2417 4761 2381
N 1367.95 122.01 14.7552 4762 2381
N 1455.07 121.759 78.80370000000001 4763 2382
N 1455.14 120.884 78.1002 4764 2382
N 1342.18 110.048 102.068 4765 2383
N 1342.18 110.935 102.744 4766 2383
N 1540.82 5.04949 40.7955 4767 2384
N 1541.84 5.26376 40.362 4768 2384
N 1363.36 140.305 9.89526 4769 2385
N 1363.56 139.308 10.3642 4770 2385
N 1444.28 99.9545 144.352 4771 2386
N 1444.41 99.1906 143.555 4772 2386
N 1346.72 9.947419999999999 54.5786 4773 2387
N 1345.91 10.652 54.8893 4774 2387
N 1488.04 134.428 90.70269999999999 4775 2388
N 1488.61 134.708 91.62090000000001 4776 2388
N 1500.21 74.9799 127.674 4777 2389
N 1499.6 75.4665 128.472 4778 2389
N 1505.88 14.1552 81.3019 4779 2390
N 1506.78 13.9119 80.6874 4780 2390
N 1342.18 7.42199 146.857 4781 2391
N 1342.18 8.410880000000001 146.273 4782 2391
N 1447.18 28.9222 77.3805 4783 2392
N 1447.61 28.265 76.5765 4784 2392
N 1583.89 127.79 72.7739 4785 2393
N 1584.83 128.176 72.2848 4786 2393
N 1464.32 132.854 16.555 4787 2394
N 1464.25 132.491 15.488 4788 2394
N 1616.18 31.6253 89.9068 4789 2395
N 1616.81 32.0174 89.06610000000001 4790 2395
N 1471.11 127.584 3.61922 4791 2396
N 1471.89 127.181 2.92663 4792 2396
N 1425.76 122.234 25.2649 4793 2397
N 1425.31 122.501 24.2744 4794 2397
N 1429.84 34.4436 22.9004 4795 2398
N 1429.6 34.325 21.819 4796 2398
N 1458.19 59.1071 78.73399999999999 4797 2399
N 1458.12 60.178 78.4153 4798 2399
N 1384.69 82.83540000000001 36.9755 4799 2400
N 1384.57 83.6862 36.2475 4800 2400
N 1451.41 47.4933 37.7181 4801 2401
N 1450.76 47.4534 36.8038 4802 2401
N 1564.07 136.922 99.11239999999999 4803 2402
N 1564.89 137.274 98.4255 4804 2402
N 1435.49 20.6283 2.6305 4805 2403
N 1436.61 20.5294 2.78152 4806 2403
N 1380.24 34.7658 7.03828 4807 2404
N 1379.84 35.1446 8.01094 4808 2404
N 1377.39 82.5342 72.2933 4809 2405
N 1376.41 82.3707 72.8201 4810 2405
N 1479.15 133.083 34.2661 4811 2406
N 1479.19 133.194 35.3718 4812 2406
N 1352.42 97.1994 128.225 4813 2407
N 1352.28 96.5287 129.119 4814 2407
N 1467.43 48.197 114.755 4815 2408
N 1468.29 48.8924 114.989 4816 2408
N 1422.6 18.9412 144.037 4817 2409
N 1421.67 18.5649 144.575 4818 2409
N 1379.05 15.1038 131.728 4819 2410
N 1380.06 15.1381 132.197 4820 2410
N 1399.74 143.543 127.837 4821 2411
N 1400.33 143.49 126.898 4822 2411
N 1376.39 16.8801 1.42249 4823 2412
N 1376.12 17.7655 0.824367 4824 2412
N 1441.25 46.2649 60.0408 4825 2413
N 1441.44 45.5779 59.1631 4826 2413
N 1431.79 123.417 73.06310000000001 4827 2414
N 1431.9 122.952 72.065 4828 2414
N 1386.92 143.539 6.4907 4829 2415
N 1387.75 143.447 5.7406 4830 2415
N 1596.72 28.2704 35.5141 4831 2416
N 1597.53 27.8697 36.1854 4832 2416
N 1420.92 81.4559 23.4917 4833 2417
N 1419.99 80.8648 23.2419 4834 2417
N 1400.16 8.79355 41.2279 4835 2418
N 1399.84 8.41427 42.2305 4836 2418
N 1342.18 68.7469 86.2638 4837 2419
N 1342.18 68.96469999999999 87.3549 4838 2419
N 1604.13 78.48050000000001 32.7242 4839 2420
N 1604.08 77.7702 33.5945 4840 2420
N 1394.68 133.347 2.08601 4841 2421
N 1393.71 133.024 2.55543 4842 2421
N 1366.02 137.913 135.051 4843 2422
N 1364.94 137.833 134.769 4844 2422
N 1486.88 99.5033 12.1421 4845 2423
N 1485.85 99.86920000000001 12.3825 4846 2423
N 1399.82 85.7872 126.359 4847 2424
N 1399.09 86.3661 125.707 4848 2424
N 1386.36 39.8052 37.209 4849 2425
N 1386.37 39.5286 36.122 4850 2425
N 1371.09 128.073 137.698 4851 2426
N 1370.36 127.766 136.892 4852 2426
N 1406.09 39.8044 115.89 4853 2427
N 1405.06 39.4044 115.673 4854 2427
N 1384.98 7.23448 20.114 4855 2428
N 1385.17 7.88241 21.0124 4856 2428
N 1523.01 131.745 26.4484 4857 2429
N 1522.84 130.719 26.0384 4858 2429
N 1414.54 70.83629999999999 111.178 4859 2430
N 1415.31 71.5826 110.873 4860 2430
N 1345.41 130.239 85.37609999999999 4861 2431
N 1345.88 130.693 84.46720000000001 4862 2431
N 1443.64 105.852 82.6699 4863 2432
N 1442.59 106.135 82.8882 4864 2432
N 1342.18 95.4294 97.976 4865 2433
N 1342.18 95.9171 97.00790000000001 4866 2433
N 1578.2 145.431 12.7646 4867 2434
N 1578 144.665 13.5636 4868 2434
N 1725.82 51.6623 105.799 4869 2435
N 1726.04 50.6544 106.27 4870 2435
N 1342.18 122.314 89.64749999999999 4871 2436
N 1342.18 122.394 90.7306 4872 2436
N 1488.22 109.516 138.024 4873 2437
N 1487.27 108.986 138.289 4874 2437
N 1359.47 68.8466 38.2841 4875 2438
N 1359.39 69.4571 37.3419 4876 2438
N 1463.5 108.955 44.9635 4877 2439
N 1463.47 109.959 45.4683 4878 2439
N 1480.71 148.039 61.2868 4879 2440
N 1479.95 147.409 61.8214 4880 2440
N 1433.71 135.28 130.675 4881 2441
N 1434.16 135.571 129.696 4882 2441
N 1483.41 2.61383 2.95095 4883 2442
N 1482.83 3.5596 3.13949 4884 2442
N 1547.21 134.824 78.5428 4885 2443
N 1547.64 133.787 78.5187 4886 2443
N 1453.21 23.2366 8.13236 4887 2444
N 1454.2 22.8397 8.45471 4888 2444
N 1427.54 68.62690000000001 78.502 4889 2445
N 1427.34 69.4633 79.2242 4890 2445
N 1380.34 60.4427 143.669 4891 2446
N 1380.04 61.3273 143.061 4892 2446
N 1375.9 109.089 40.3394 4893 2447
N 1375.98 108.144 39.7542 4894 2447
N 1376.88 63.805 58.9466 4895 2448
N 1376.88 62.7255 59.2581 4896 2448
N 1469.69 130.662 58.6519 4897 2449
N 1469.05 129.963 59.2628 4898 2449
N 1488.84 1.76708 137.535 4899 2450
N 1488.34 0.853587 137.141 4900 2450
N 1432.77 66.18510000000001 31.4922 4901 2451
N 1432.66 66.9148 32.3324 4902 2451
N 1351.92 110.954 97.96120000000001 4903 2452
N 1352.16 111.259 96.9247 4904 2452
N 1735.2 34.8558 90.8939 4905 2453
N 1735.92 34.6773 91.717 4906 2453
N 1396.15 114.844 74.7016 4907 2454
N 1396.05 113.76 74.46599999999999 4908 2454
N 1342.18 21.4002 83.22029999999999 4909 2455
N 1342.18 22.1249 82.3991 4910 2455
N 1477.55 14.4512 44.9043 4911 2456
N 1478.11 15.3168 45.3449 4912 2456
N 1485.89 133.574 61.277 4913 2457
N 1486.25 132.781 60.5683 4914 2457
N 1584.34 16.4217 76.2178 4915 2458
N 1585.18 16.1307 76.89870000000001 4916 2458
N 1342.18 101.276 121.978 4917 2459
N 1342.18 100.629 122.858 4918 2459
N 1454.69 74.0138 136.733 4919 2460
N 1454.94 73.97969999999999 137.849 4920 2460
N 1405.75 142.756 54.0747 4921 2461
N 1406.12 143.566 53.4214 4922 2461
N 1383.19 94.8746 46.6675 4923 2462
N 1382.92 95.2285 47.693 4924 2462
N 1342.18 27.8032 149.187 4925 2463
N 1342.18 28.4998 148.329 4926 2463
N 1488.57 31.4962 63.1692 4927 2464
N 1487.55 31.1315 63.445 4928 2464
N 1417.11 74.774 106.617 4929 2465
N 1416.67 73.7984 106.958 4930 2465
N 1430.42 125.473 129.409 4931 2466
N 1430.7 124.585 128.773 4932 2466
N 1378.2 138.017 136.451 4933 2467
N 1377.31 137.304 136.558 4934 2467
N 1352.93 94.2274 62.4075 4935 2468
N 1352.38 95.133 62.7985 4936 2468
N 1460.02 110.634 2.44359 4937 2469
N 1459.17 110.871 3.15189 4938 2469
N 1453.28 52.7911 110.972 4939 2470
N 1454.36 52.5453 110.89 4940 2470
N 1385.47 132.707 10.0458 4941 2471
N 1386.24 132.196 10.6661 4942 2471
N 1410.18 120.667 13.2471 4943 2472
N 1410.46 119.65 12.8546 4944 2472
N 1363.11 26.9734 145.097 4945 2473
N 1363.8 26.8616 145.977 4946 2473
N 1405.19 132.103 39.7584 4947 2474
N 1406.15 132.43 40.2317 4948 2474
N 1430.92 14.0161 127.225 4949 2475
N 1430.95 14.1959 128.336 4950 2475
N 1462.56 142.249 54.5611 4951 2476
N 1461.66 142.711 54.0932 4952 2476
N 1421.66 52.0343 75.9327 4953 2477
N 1421.72 53.1511 75.9367 4954 2477
N 1649.49 28.0994 33.7563 4955 2478
N 1649.8 27.7772 34.7916 4956 2478
N 1494.16 103.438 117.995 4957 2479
N 1494.73 102.991 118.843 4958 2479
N 1439.3 58.3773 95.6382 4959 2480
N 1439 59.0872 94.81489999999999 4960 2480
N 1472.12 37.0538 80.4522 4961 2481
N 1472.23 37.7766 79.6093 4962 2481
N 1414.17 0.146036 131.243 4963 2482
N 1413.89 0.250895 130.152 4964 2482
N 1492.33 68.3896 33.5018 4965 2483
N 1492.42 68.6768 34.5985 4966 2483
N 1480.56 77.87739999999999 115.733 4967 2484
N 1479.93 78.6109 115.168 4968 2484
N 1452.63 126.561 67.2362 4969 2485
N 1453.66 126.978 67.35899999999999 4970 2485
N 1342.18 33.7506 85.41289999999999 4971 2486
N 1342.18 32.7661 85.9575 4972 2486
N 1472.76 84.5737 24.9195 4973 2487
N 1473.51 83.83029999999999 25.3186 4974 2487
N 1357.02 114.84 117.056 4975 2488
N 1357.68 114.806 117.977 4976 2488
N 1345.58 88.24469999999999 12.4686 4977 2489
N 1344.61 88.76649999999999 12.3935 4978 2489
N 1416.97 40.2048 37.4613 4979 2490
N 1416.22 39.4284 37.2745 4980 2490
N 1383.35 0.0780333 67.6537 4981 2491
N 1383.17 148.982 67.4986 4982 2491
N 1411.76 10.8642 64.39879999999999 4983 2492
N 1411.95 11.5281 65.2826 4984 2492
N 1346.69 81.3755 104.039 4985 2493
N 1347.61 81.98090000000001 104.035 4986 2493
N 1456.11 149.041 28.4956 4987 2494
N 1456.16 149.96 27.871 4988 2494
N 1420.05 21.2847 5.00338 4989 2495
N 1420.82 20.7143 5.56336 4990 2495
N 1549.04 60.1588 70.8575 4991 2496
N 1548.21 60.3651 71.56010000000001 4992 2496
N 1357.27 145.316 123.23 4993 2497
N 1358.15 145.109 123.908 4994 2497
N 1443.49 111.872 111.532 4995 2498
N 1443.17 112.859 111.114 4996 2498
N 1529.55 13.6599 128.275 4997 2499
N 1528.83 13.7519 129.14 4998 2499
N 1407.68 42.561 137.714 4999 2500
N 1408.51 43.2846 137.6 5000 2500
N 1458.7 41.296 62.187 5001 2501
N 1458.62 42.4044 62.299 5002 2501
N 1522.75 11.6616 86.86450000000001 5003 2502
N 1523.59 12.3755 87.0951 5004 2502
N 1717.74 99.9173 113.872 5005 2503
N 1717.63 98.8135 114.012 5006 2503
N 1376.79 25.0821 29.1563 5007 2504
N 1376.5 25.046 30.2237 5008 2504
N 1353.54 15.0181 59.5077 5009 2505
N 1353.42 14.7944 60.5982 5010 2505
N 1342.18 75.4888 59.8305 5011 2506
N 1342.18 76.57940000000001 59.9759 5012 2506
N 1349.93 148.441 76.0378 5013 2507
N 1350.72 148.509 75.24509999999999 5014 2507
N 1364.12 104.811 50.674 5015 2508
N 1363.54 104.244 49.8841 5016 2508
N 1583.75 43.6114 30.6732 5017 2509
N 1584.8 43.4419 30.37 5018 2509
N 1436.84 70.7483 121.81 5019 2510
N 1437.63 71.4997 122.05 5020 2510
N 1451.38 116.901 37.0479 5021 2511
N 1451.47 118.024 37.0417 5022 2511
N 1352.56 8.08305 75.8244 5023 2512
N 1352.75 9.159549999999999 75.65130000000001 5024 2512
N 1385.02 85.48390000000001 68.8578 5025 2513
N 1385.99 85.85420000000001 69.2744 5026 2513
N 1522.28 60.6654 135.125 5027 2514
N 1521.91 60.4319 134.104 5028 2514
N 1363.32 143.559 73.8798 5029 2515
N 1363.05 143.575 74.98520000000001 5030 2515
N 1436.57 125.307 25.7115 5031 2516
N 1437.32 125.12 24.8878 5032 2516
N 1585.88 128.175 128.535 5033 2517
N 1585.91 129.259 128.295 5034 2517
N 1342.18 102.019 31.9515 5035 2518
N 1342.18 102.91 32.6005 5036 2518
N 1397.42 2.40861 86.46550000000001 5037 2519
N 1397.05 2.04873 85.4693 5038 2519
N 1408.76 10.0484 148.803 5039 2520
N 1408.66 10.0864 149.925 5040 2520
N 1538.05 51.0269 11.2945 5041 2521
N 1536.98 50.7443 11.2797 5042 2521
N 1342.18 81.14100000000001 61.1204 5043 2522
N 1342.18 80.35850000000001 60.3249 5044 2522
N 1423.22 83.48099999999999 55.8248 5045 2523
N 1423.93 83.2334 56.6566 5046 2523
N 1676.65 15.335 138.76 5047 2524
N 1676.69 15.8093 137.752 5048 2524
N 1367.77 49.7061 92.47709999999999 5049 2525
N 1367.08 49.2292 91.7514 5050 2525
N 1590.33 20.0081 103.084 5051 2526
N 1589.64 19.2662 102.626 5052 2526
N 1387.46 87.3955 1.15306 5053 2527
N 1386.72 88.2183 1.0563 5054 2527
N 1391.53 102.417 99.0012 5055 2528
N 1392.1 102.801 99.88760000000001 5056 2528
N 1390.32 121.547 78.3359 5057 2529
N 1389.35 120.985 78.3818 5058 2529
N 1425.35 93.40730000000001 64.0132 5059 2530
N 1426.28 93.09990000000001 63.4995 5060 2530
N 1571.44 145.293 29.4527 5061 2531
N 1570.44 144.818 29.3038 5062 2531
N 1388.56 43.6714 0.209383 5063 2532
N 1389.42 43.0083 0.473032 5064 2532
N 1348.11 82.5521 47.7476 5065 2533
N 1348.99 83.22799999999999 47.7395 5066 2533
N 1549.03 135.367 131.275 5067 2534
N 1548.39 135.46 132.181 5068 2534
N 1569.55 84.3023 21.7141 5069 2535
N 1570 84.9669 22.4849 5070 2535
N 1357.45 59.8514 93.2086 5071 2536
N 1356.47 60.3883 92.99250000000001 5072 2536
N 1401.43 149.154 59.6051 5073 2537
N 1401.57 148.873 58.5252 5074 2537
N 1422.46 10.7329 32.5691 5075 2538
N 1422.41 10.6249 33.7114 5076 2538
N 1474.22 35.4387 48.1826 5077 2539
N 1473.29 35.0004 47.7126 5078 2539
N 1349.3 149.215 39.1101 5079 2540
N 1349.7 148.341 38.4976 5080 2540
N 1466.31 101.631 34.3605 5081 2541
N 1466.61 100.892 33.5856 5082 2541
N 1491.5 76.9897 38.1282 5083 2542
N 1492.59 77.2145 38.3509 5084 2542
N 1590.38 92.5697 90.3811 5085 2543
N 1591.3 92.51909999999999 89.7317 5086 2543
N 1590.05 147.009 137.222 5087 2544
N 1590.35 148.08 137.359 5088 2544
N 1389.41 77.5107 149.414 5089 2545
N 1388.49 77.5736 148.785 5090 2545
N 1543.26 14.9457 101.202 5091 2546
N 1543.47 15.1572 102.278 5092 2546
N 1464.85 113.389 88.5072 5093 2547
N 1464.24 113.159 87.5949 5094 2547
N 1448.35 62.0938 72.7841 5095 2548
N 1447.64 61.597 72.11069999999999 5096 2548
N 1402 55.8985 63.8659 5097 2549
N 1401.21 56.0338 64.6587 5098 2549
N 1342.18 144.675 71.72839999999999 5099 2550
N 1342.18 143.646 72.1056 5100 2550
N 1632.99 45.5552 125.117 5101 2551
N 1632.31 46.3342 125.577 5102 2551
N 1370.22 106.627 53.3171 5103 2552
N 1369.57 107.467 52.9338 5104 2552
N 1365.65 74.3974 79.3454 5105 2553
N 1365.55 74.8503 80.37220000000001 5106 2553
N 1564.33 130.174 116.647 5107 2554
N 1564.38 131.175 117.14 5108 2554
N 1428.34 60.2774 60.748 5109 2555
N 1428.89 61.2179 60.9734 5110 2555
N 1420.87 11.0392 105.213 5111 2556
N 1420.94 11.9595 104.575 5112 2556
N 1342.18 137.051 39.2725 5113 2557
N 1342.18 137.819 38.4817 5114 2557
N 1404.44 46.7002 81.0844 5115 2558
N 1405.02 46.0858 81.8329 5116 2558
N 1407.98 115.258 12.6565 5117 2559
N 1408.71 115.15 11.7943 5118 2559
N 1558.74 133.289 81.22750000000001 5119 2560
N 1558.88 132.941 82.2811 5120 2560
N 1349.98 148.863 90.3927 5121 2561
N 1350.44 147.936 90.0193 5122 2561
N 1375.23 8.89025 119.743 5123 2562
N 1375.72 9.19716 118.78 5124 2562
N 1408.55 18.0043 16.8374 5125 2563
N 1408.58 16.9297 17.1658 5126 2563
N 1417.41 97.55670000000001 86.0085 5127 2564
N 1417.14 98.39530000000001 86.69289999999999 5128 2564
N 1368.91 86.7719 87.77800000000001 5129 2565
N 1368.45 86.5682 88.77630000000001 5130 2565
N 1506.67 128.183 16.9322 5131 2566
N 1506.75 127.07 17.0378 5132 2566
N 1473.77 82.6253 97.566 5133 2567
N 1473.35 83.3496 98.32899999999999 5134 2567
N 1808.21 25.2709 116.428 5135 2568
N 1809.01 24.6167 115.972 5136 2568
N 1390.73 86.9623 13.6538 5137 2569
N 1389.79 86.7022 14.1773 5138 2569
N 1442.76 16.7087 20.3712 5139 2570
N 1442.56 16.6259 21.4686 5140 2570
N 1381.17 98.95829999999999 43.3938 5141 2571
N 1381.18 99.2333 42.3027 5142 2571
N 1347.83 121.957 123.443 5143 2572
N 1348.59 121.168 123.288 5144 2572
N 1520.3 30.176 7.01877 5145 2573
N 1521.23 29.7858 7.47817 5146 2573
N 1477.03 30.4759 58.21 5147 2574
N 1476.95 29.3884 58.4429 5148 2574
N 1549.3 90.20829999999999 78.9842 5149 2575
N 1549.47 90.1798 80.0817 5150 2575
N 1390.97 84.0461 104.148 5151 2576
N 1391.98 83.977 104.637 5152 2576
N 1509.58 88.86750000000001 118.759 5153 2577
N 1510.56 88.6185 118.289 5154 2577
N 1349.37 131.026 110.016 5155 2578
N 1348.34 130.733 110.285 5156 2578
N 1506.64 96.8999 55.4361 5157 2579
N 1506.06 97.37869999999999 54.6057 5158 2579
N 1370.78 109.127 112.821 5159 2580
N 1369.71 109.288 112.571 5160 2580
N 1364.17 45.7646 103.892 5161 2581
N 1364.45 45.2639 102.916 5162 2581
N 1408.87 3.11074 7.41254 5163 2582
N 1409.98 3.13438 7.23446 5164 2582
N 1689.91 145.228 41.3167 5165 2583
N 1690.31 146.002 42.0163 5166 2583
N 1415.8 92.7407 107.813 5167 2584
N 1415.52 93.7839 108.164 5168 2584
N 1363.67 119.171 138.515 5169 2585
N 1363.4 119.159 139.605 5170 2585
N 1440.3 17.3198 60.1659 5171 2586
N 1440.41 16.2403 59.8722 5172 2586
N 1417.77 49.0361 102.558 5173 2587
N 1418.44 49.1297 101.673 5174 2587
N 1606.09 97.5754 122.89 5175 2588
N 1605.19 97.6092 123.554 5176 2588
N 1443.07 98.3446 99.449 5177 2589
N 1442.16 98.7726 98.92829999999999 5178 2589
N 1368.9 124.082 57.5402 5179 2590
N 1368.11 124.856 57.7425 5180 2590
N 1400.66 111.779 103.468 5181 2591
N 1400.16 111.589 104.475 5182 2591
N 1433.53 71.35129999999999 133.105 5183 2592
N 1433.29 72.4421 133.154 5184 2592
N 1379.23 10.6299 102.665 5185 2593
N 1379.18 9.51587 102.472 5186 2593
N 1522.21 78.9654 133.06 5187 2594
N 1521.36 79.2847 132.399 5188 2594
N 1342.18 39.4032 107.25 5189 2595
N 1342.18 38.3203 107.179 5190 2595
N 1444.82 92.6994 56.2566 5191 2596
N 1445.32 91.8429 56.7868 5192 2596
N 1452.63 103.273 36.4468 5193 2597
N 1452.23 102.653 35.6228 5194 2597
N 1476.25 30.2978 133.242 5195 2598
N 1476.6 31.3468 133.449 5196 2598
N 1502.15 100.788 103.457 5197 2599
N 1502.9 100.932 104.284 5198 2599
N 1644.91 21.0289 130.991 5199 2600
N 1645.03 21.838 131.753 5200 2600
N 1421.15 133.832 52.1314 5201 2601
N 1421.87 133.607 51.2992 5202 2601
N 1410.73 121.524 46.9415 5203 2602
N 1411.12 122.499 46.6333 5204 2602
N 1371.51 139.771 58.4758 5205 2603
N 1370.82 140.578 58.1428 5206 2603
N 1358.85 79.5172 116.682 5207 2604
N 1357.78 79.79470000000001 116.393 5208 2604
N 1440.35 144.801 57.3055 5209 2605
N 1440.1 144.211 56.4017 5210 2605
N 1555.99 109.008 55.0159 5211 2606
N 1555.93 108.972 56.1335 5212 2606
N 1497.15 58.2005 68.57689999999999 5213 2607
N 1496.54 58.8266 67.8796 5214 2607
N 1439.8 70.187 59.2271 5215 2608
N 1439.51 69.4695 58.4197 5216 2608
N 1460.09 76.4547 110.192 5217 2609
N 1459.86 77.30370000000001 109.505 5218 2609
N 1447.11 95.9033 106.661 5219 2610
N 1447.69 96.1069 105.727 5220 2610
N 1457.32 102.637 126.746 5221 2611
N 1457.19 102.229 125.718 5222 2611
N 1455.87 82.3753 149.051 5223 2612
N 1455.67 81.4408 148.437 5224 2612
N 1457.15 145.469 120.139 5225 2613
N 1458.26 145.668 120.123 5226 2613
N 1375.91 78.4145 59.9622 5227 2614
N 1376.8 78.56059999999999 59.3209 5228 2614
N 1469.03 65.5724 130.465 5229 2615
N 1468.86 64.4705 130.345 5230 2615
N 1548.56 105.127 28.0995 5231 2616
N 1549.12 105.65 27.2872 5232 2616
N 1349.57 52.4483 48.5932 5233 2617
N 1349.36 53.3641 49.2003 5234 2617
N 1374.7 58.2743 11.3407 5235 2618
N 1373.59 58.1585 11.4816 5236 2618
N 1454.64 71.4451 57.1192 5237 2619
N 1455.09 71.8635 58.0402 5238 2619
N 1423.52 94.75490000000001 100.654 5239 2620
N 1422.87 94.18170000000001 99.94540000000001 5240 2620
N 1353.35 102.802 105.772 5241 2621
N 1353.29 103.886 106.05 5242 2621
N 1347.62 104.469 28.6438 5243 2622
N 1347.21 103.445 28.3801 5244 2622
N 1505.87 94.19670000000001 136.735 5245 2623
N 1506.47 93.4286 137.281 5246 2623
N 1395.22 107.944 101.413 5247 2624
N 1395.26 108.123 100.308 5248 2624
N 1433.71 41.1188 107.871 5249 2625
N 1433.73 41.4949 106.817 5250 2625
N 1481.31 42.1462 6.48 5251 2626
N 1480.67 43.0409 6.29928 5252 2626
N 1444.47 24.1832 119.03 5253 2627
N 1445.08 25.0514 118.655 5254 2627
N 1406.15 96.7783 121.699 5255 2628
N 1405.71 96.1562 120.885 5256 2628
N 1370.93 148.434 120.631 5257 2629
N 1371.94 148.805 120.764 5258 2629
N 1384.83 20.138 116.296 5259 2630
N 1385.31 19.6166 115.44 5260 2630
N 1351.19 20.4725 36.2134 5261 2631
N 1351.21 19.5302 35.586 5262 2631
N 1494.99 128.946 109.413 5263 2632
N 1495.23 130.028 109.262 5264 2632
N 1425.39 72.4696 61.8715 5265 2633
N 1425.42 73.42140000000001 62.4264 5266 2633
N 1589.7 55.2317 88.11790000000001 5267 2634
N 1589.88 55.969 88.9235 5268 2634
N 1379.57 33.48 56.5885 5269 2635
N 1379.42 34.5459 56.216 5270 2635
N 1438.62 42.3834 148.392 5271 2636
N 1439.02 41.6088 147.702 5272 2636
N 1362.16 53.8632 126.122 5273 2637
N 1361.31 54.4615 125.772 5274 2637
N 1459.4 67.5047 20.2105 5275 2638
N 1460.35 68.0381 20.4228 5276 2638
N 1415.85 54.7842 139.874 5277 2639
N 1416.69 54.0951 140.089 5278 2639
N 1501.13 70.88420000000001 28.3887 5279 2640
N 1501.6 70.0354 27.8266 5280 2640
N 1345.49 117.166 43.5747 5281 2641
N 1346.09 116.228 43.4412 5282 2641
N 1426.49 10.9886 92.0264 5283 2642
N 1427.22 10.3606 91.4337 5284 2642
N 1497.32 89.8485 8.201460000000001 5285 2643
N 1497.98 89.07259999999999 8.65798 5286 2643
N 1347.01 72.7089 78.0194 5287 2644
N 1347.41 73.5946 78.5705 5288 2644
N 1342.18 106.143 142.17 5289 2645
N 1342.18 107.179 142.555 5290 2645
N 1504.04 30.9579 60.1151 5291 2646
N 1503.83 31.8224 60.8085 5292 2646
N 1355.56 114.754 146.699 5293 2647
N 1355.96 115.78 146.896 5294 2647
N 1386.82 149.993 76.43640000000001 5295 2648
N 1387.26 148.983 76.3045 5296 2648
N 1365.26 16.8191 67.4037 5297 2649
N 1365.73 17.8292 67.367 5298 2649
N 1393.66 28.3244 78.1101 5299 2650
N 1393.95 28.6615 77.07389999999999 5300 2650
N 1517.36 92.3096 43.4394 5301 2651
N 1517.39 93.2611 42.8392 5302 2651
N 1352.21 63.7879 73.4064 5303 2652
N 1351.79 64.73 72.9739 5304 2652
N 1534.68 5.43584 26.4361 5305 2653
N 1535.21 5.97556 27.2479 5306 2653
N 1501.48 114.723 99.12739999999999 5307 2654
N 1502.29 114.273 99.7373 5308 2654
N 1373.93 44.5744 59.2208 5309 2655
N 1373.63 45.4438 58.5904 5310 2655
N 1523.3 101.99 122.379 5311 2656
N 1523.16 101.158 121.643 5312 2656
N 1342.18 117.061 25.9191 5313 2657
N 1342.18 116.983 27.0098 5314 2657
N 1355.54 136.272 109.367 5315 2658
N 1355.28 136.163 108.288 5316 2658
N 1406.78 59.4525 32.6933 5317 2659
N 1406.1 59.1869 33.5426 5318 2659
N 1355.33 133.455 44.2441 5319 2660
N 1354.23 133.572 44.2563 5320 2660
N 1376.52 41.4931 133.94 5321 2661
N 1375.77 40.792 133.469 5322 2661
N 1505.23 123.964 106.169 5323 2662
N 1505.05 122.93 105.785 5324 2662
N 1403.26 24.4917 84.0141 5325 2663
N 1403.32 23.3962 84.24250000000001 5326 2663
N 1586.33 140.676 95.67010000000001 5327 2664
N 1585.79 141.114 94.7941 5328 2664
N 1365.27 97.93340000000001 89.71380000000001 5329 2665
N 1366.07 98.5784 89.25700000000001 5330 2665
N 1465.67 0.132237 118.548 5331 2666
N 1465.95 149.893 117.49 5332 2666
N 1423.39 87.51600000000001 47.0737 5333 2667
N 1422.61 88.2942 47.2923 5334 2667
N 1493.4 119.067 26.8914 5335 2668
N 1492.47 119.67 26.7337 5336 2668
N 1401.76 149.957 23.9781 5337 2669
N 1402.34 0.891111 24.1636 5338 2669
N 1354.4 126.538 95.82859999999999 5339 2670
N 1354.91 125.712 96.3669 5340 2670
N 1406.29 93.6311 40.7562 5341 2671
N 1405.45 93.2422 41.4028 5342 2671
N 1353.49 95.09399999999999 101.212 5343 2672
N 1352.95 94.3248 101.816 5344 2672
N 1453.94 11.9988 53.9557 5345 2673
N 1453.95 12.2911 52.8984 5346 2673
N 1351.73 117.301 78.3841 5347 2674
N 1351.63 117.075 77.2938 5348 2674
N 1366.1 94.7672 51.9624 5349 2675
N 1365.05 94.9064 52.3515 5350 2675
N 1373.03 9.46393 28.2555 5351 2676
N 1372.97 10.0893 29.174 5352 2676
N 1495.77 118.356 84.7368 5353 2677
N 1494.72 117.995 84.5138 5354 2677
N 1360.81 125.584 70.6228 5355 2678
N 1361.92 125.533 70.63639999999999 5356 2678
N 1474.28 28.488 74.8614 5357 2679
N 1474.05 29.0997 73.9492 5358 2679
N 1381.02 104.73 74.852 5359 2680
N 1380.06 104.863 74.30029999999999 5360 2680
N 1464.59 107.043 143.909 5361 2681
N 1464.97 106.347 144.693 5362 2681
N 1398.42 6.48264 135.526 5363 2682
N 1398.51 6.2632 136.616 5364 2682
N 1342.18 117.707 121.102 5365 2683
N 1342.18 116.677 120.627 5366 2683
N 1393.54 106.161 52.0921 5367 2684
N 1394.16 105.362 52.5503 5368 2684
N 1482.45 59.4241 19.755 5369 2685
N 1481.57 59.3186 19.0607 5370 2685
N 1350.59 76.432 46.8082 5371 2686
N 1351.11 75.7436 46.0996 5372 2686
N 1377.88 68.4881 39.6816 5373 2687
N 1378.76 68.1931 39.046 5374 2687
N 1424.82 134.641 43.7453 5375 2688
N 1424.52 133.601 43.4741 5376 2688
N 1374.09 87.7799 1.26289 5377 2689
N 1373.24 87.22969999999999 0.77681 5378 2689
N 1379.45 132.595 135.824 5379 2690
N 1378.48 132.736 136.339 5380 2690
N 1360.66 104.789 90.1421 5381 2691
N 1360.95 104.787 89.0543 5382 2691
N 1445.8 147.501 48.0112 5383 2692
N 1445.86 147.774 46.9271 5384 2692
N 1342.18 63.5783 17.0273 5385 2693
N 1342.18 63.6233 15.8819 5386 2693
N 1349.54 60.982 124.859 5387 2694
N 1350.32 61.4813 125.471 5388 2694
N 1533.58 80.06180000000001 117.609 5389 2695
N 1533.75 80.57989999999999 116.63 5390 2695
N 1364.55 85.3685 17.0757 5391 2696
N 1363.55 85.14960000000001 16.6327 5392 2696
N 1434.46 97.00530000000001 145.343 5393 2697
N 1433.96 97.2988 144.375 5394 2697
N 1389.08 74.2075 89.4914 5395 2698
N 1389.42 73.3505 90.14190000000001 5396 2698
N 1353.85 91.1473 140.661 5397 2699
N 1352.94 90.6921 141.092 5398 2699
N 1377.53 131.755 88.21510000000001 5399 2700
N 1378.33 132.517 88.0684 5400 2700
N 1458.16 126.021 12.3143 5401 2701
N 1458.32 126.722 13.1798 5402 2701
N 1516.58 125.91 67.70489999999999 5403 2702
N 1517.4 126.651 67.55070000000001 5404 2702
N 1438.37 16.1032 93.584 5405 2703
N 1437.69 15.2222 93.5157 5406 2703
N 1411.26 131.188 26.4778 5407 2704
N 1412.24 131.485 26.9538 5408 2704
N 1507.64 17.429 145.663 5409 2705
N 1507.62 16.3285 145.836 5410 2705
N 1464.35 13.8619 145.489 5411 2706
N 1463.29 13.5195 145.405 5412 2706
N 1473.7 99.38420000000001 96.251 5413 2707
N 1472.93 98.85639999999999 95.6271 5414 2707
N 1418.87 13.3302 80.5179 5415 2708
N 1418.79 12.7074 79.59650000000001 5416 2708
N 1389.74 51.4465 118.947 5417 2709
N 1388.98 51.1386 118.172 5418 2709
N 1460.97 21.2218 127.84 5419 2710
N 1460.65 20.1556 127.744 5420 2710
N 1347.07 120.802 130.884 5421 2711
N 1346.11 120.512 130.382 5422 2711
N 1390.74 129.69 101.66 5423 2712
N 1391.61 130.36 101.503 5424 2712
N 1522.13 132.983 98.7195 5425 2713
N 1522.65 133.567 99.51519999999999 5426 2713
N 1377.45 41.9718 30.7321 5427 2714
N 1378.1 42.4685 31.5159 5428 2714
N 1376.85 75.79640000000001 83.24209999999999 5429 2715
N 1377.6 76.4671 82.73139999999999 5430 2715
N 1785.91 125.174 113.032 5431 2716
N 1785.89 126.294 113.096 5432 2716
N 1435.55 5.43595 89.0558 5433 2717
N 1435.31 5.26628 87.9736 5434 2717
N 1404.51 10.1585 0.430807 5435 2718
N 1404 9.24699 149.981 5436 2718
N 1342.18 24.699 132.625 5437 2719
N 1342.18 25.6644 132.065 5438 2719
N 1342.18 66.8086 74.6769 5439 2720
N 1342.18 67.71299999999999 75.3629 5440 2720
N 1504.34 88.77970000000001 33.1412 5441 2721
N 1503.91 87.83759999999999 33.5698 5442 2721
N 1405.06 4.96969 140.374 5443 2722
N 1405.49 4.77567 139.36 5444 2722
N 1559.54 140.255 105.888 5445 2723
N 1559.18 139.59 106.698 5446 2723
N 1410.76 105.903 79.63930000000001 5447 2724
N 1409.69 106.122 79.4953 5448 2724
N 1407.16 30.8543 135.481 5449 2725
N 1406.3 30.2071 135.163 5450 2725
N 1585.64 101.198 120.068 5451 2726
N 1585.84 100.223 119.563 5452 2726
N 1393.87 34.8298 126.145 5453 2727
N 1393.55 33.9096 126.71 5454 2727
N 1436.32 94.239 64.4358 5455 2728
N 1436.28 93.42010000000001 65.1947 5456 2728
N 1502.63 148.766 89.54819999999999 5457 2729
N 1501.65 148.461 90.0076 5458 2729
N 1361.45 136.201 94.70740000000001 5459 2730
N 1360.57 135.963 94.032 5460 2730
N 1552.46 95.8034 67.4932 5461 2731
N 1551.51 95.9812 68.07899999999999 5462 2731
N 1546.83 137.827 61.2313 5463 2732
N 1547.18 137.639 60.1963 5464 2732
N 1388.52 5.59062 88.4209 5465 2733
N 1389.44 4.95839 88.455 5466 2733
N 1454.08 103.18 15.0543 5467 2734
N 1454.03 103.393 16.1492 5468 2734
N 1478.66 96.8882 88.1806 5469 2735
N 1477.94 97.3951 88.8811 5470 2735
N 1395.2 86.1016 0.294664 5471 2736
N 1395.23 86.1395 1.40798 5472 2736
N 1541.26 129.709 7.08549 5473 2737
N 1542.33 129.384 7.24321 5474 2737
N 1461.73 122.727 92.5485 5475 2738
N 1462.29 122.884 93.5112 5476 2738
N 1497.9 100.811 13.9003 5477 2739
N 1497.34 101.591 13.3539 5478 2739
N 1416.7 85.2653 141.966 5479 2740
N 1417.73 85.5164 142.353 5480 2740
N 1411.49 81.21250000000001 33.4016 5481 2741
N 1411.75 80.3715 34.0728 5482 2741
N 1483.3 56.5691 40.7317 5483 2742
N 1484.39 56.3308 40.6066 5484 2742
N 1456.51 81.7325 131.466 5485 2743
N 1456.42 80.68810000000001 131.084 5486 2743
N 1372.38 85.9971 75.56619999999999 5487 2744
N 1373.27 86.62139999999999 75.78400000000001 5488 2744
N 1342.18 107.016 116.483 5489 2745
N 1342.18 106.042 115.916 5490 2745
N 1460.98 18.0377 98.56829999999999 5491 2746
N 1461.23 17.1296 97.95399999999999 5492 2746
N 1689.75 46.9521 13.9028 5493 2747
N 1689.47 46.2188 14.6862 5494 2747
N 1399.07 70.31780000000001 3.96781 5495 2748
N 1398.67 71.17610000000001 4.57718 5496 2748
N 1431.8 96.6315 127.018 5497 2749
N 1431.76 97.59050000000001 127.59 5498 2749
N 1377.25 53.8095 104.265 5499 2750
N 1376.68 53.1417 103.573 5500 2750
N 1580.38 59.3796 65.98650000000001 5501 2751
N 1580.93 60.0416 65.2808 5502 2751
N 1419.61 102.971 41.9663 5503 2752
N 1420.37 102.913 42.7844 5504 2752
N 1392.85 129.675 17.1879 5505 2753
N 1392.01 129.181 16.6414 5506 2753
N 1370.22 13.3345 120.908 5507 2754
N 1371.24 13.7908 120.8 5508 2754
N 1380.24 16.3485 27.6868 5509 2755
N 1379.93 16.3505 26.6057 5510 2755
N 1407 34.134 96.9492 5511 2756
N 1406.93 35.0764 97.5595 5512 2756
N 1462.22 83.514 138.522 5513 2757
N 1462.21 82.52 139.042 5514 2757
N 1483 140.173 106.222 5515 2758
N 1482.85 140.197 107.341 5516 2758
N 1404.32 143.301 117.896 5517 2759
N 1403.51 143.887 117.422 5518 2759
N 1507.02 118.577 110.704 5519 2760
N 1506.54 119.405 111.306 5520 2760
N 1413.35 71.77679999999999 43.639 5521 2761
N 1413.74 72.2462 42.6989 5522 2761
N 1615.96 94.7535 81.39919999999999 5523 2762
N 1616.04 93.63290000000001 81.3223 5524 2762
N 1401.7 140.218 67.2436 5525 2763
N 1401.74 140.562 68.3169 5526 2763
N 1427.07 17.3824 147.744 5527 2764
N 1426.49 16.8997 146.904 5528 2764
N 1502.41 123.284 130.43 5529 2765
N 1502.52 123.617 129.36 5530 2765
N 1482.39 111.864 120.938 5531 2766
N 1482.67 112.12 119.889 5532 2766
N 1477.45 76.0722 4.19797 5533 2767
N 1476.83 75.7479 3.32298 5534 2767
N 1422.24 129.505 140.924 5535 2768
N 1422.43 130.314 140.165 5536 2768
N 1632.62 112.605 119.499 5537 2769
N 1632.24 111.925 120.304 5538 2769
N 1374.1 8.33426 132.514 5539 2770
N 1374.07 8.577870000000001 133.601 5540 2770
N 1472.15 91.22029999999999 139.346 5541 2771
N 1471.97 91.0137 140.432 5542 2771
N 1377.5 62.3305 88.2244 5543 2772
N 1378.49 62.1343 88.68470000000001 5544 2772
N 1455.67 5.40429 3.05923 5545 2773
N 1454.66 5.36215 2.58218 5546 2773
N 1378.33 86.6533 11.2631 5547 2774
N 1379.1 85.9691 10.8237 5548 2774
N 1415.11 45.3232 139.296 5549 2775
N 1415.73 45.0166 140.173 5550 2775
N 1670.84 2.53615 84.14879999999999 5551 2776
N 1671.38 1.57296 84.27760000000001 5552 2776
N 1480.45 39.9529 86.7589 5553 2777
N 1479.44 39.956 87.24160000000001 5554 2777
N 1444.04 64.70820000000001 94.0728 5555 2778
N 1444.99 65.1992 93.7508 5556 2778
N 1488.05 65.3467 136.124 5557 2779
N 1488.69 65.72709999999999 136.947 5558 2779
N 1413.97 88.54170000000001 98.1497 5559 2780
N 1413.63 89.1947 98.9748 5560 2780
N 1479.24 101.699 110.66 5561 2781
N 1479.46 101.461 111.734 5562 2781
N 1421.72 5.25836 21.0702 5563 2782
N 1422.09 6.13227 21.6555 5564 2782
N 1371.86 111.199 122.159 5565 2783
N 1370.84 110.74 122.194 5566 2783
N 1342.18 110.542 133.802 5567 2784
N 1342.18 111.65 133.911 5568 2784
N 1370.13 27.4773 70.5301 5569 2785
N 1369.63 27.9375 71.43380000000001 5570 2785
N 1395.89 26.9921 143.998 5571 2786
N 1395.24 27.8539 144.263 5572 2786
N 1406.5 120.66 115.133 5573 2787
N 1405.42 120.851 115.377 5574 2787
N 1686.35 147.513 12.9816 5575 2788
N 1687.29 147.006 12.6576 5576 2788
N 1357.42 144.749 107.272 5577 2789
N 1356.61 144.066 106.934 5578 2789
N 1587.4 95.9479 61.9828 5579 2790
N 1587.19 96.84699999999999 62.6127 5580 2790
N 1424.43 112.449 126.147 5581 2791
N 1423.42 112.086 125.834 5582 2791
N 1493.77 3.83509 44.5085 5583 2792
N 1494.66 3.34841 44.982 5584 2792
N 1478.8 32.5586 21.3712 5585 2793
N 1478.8 31.6838 22.0753 5586 2793
N 1450.18 91.7966 79.85420000000001 5587 2794
N 1450.43 92.3777 80.77809999999999 5588 2794
N 1436.66 51.3817 105.605 5589 2795
N 1437.77 51.3259 105.752 5590 2795
N 1363.88 91.236 87.34910000000001 5591 2796
N 1364.9 91.655 87.3909 5592 2796
N 1514.71 56.7226 114.758 5593 2797
N 1514.22 57.338 113.972 5594 2797
N 1358.47 130.762 32.8193 5595 2798
N 1357.91 131.735 32.8109 5596 2798
N 1504.64 144.412 85.2616 5597 2799
N 1505.01 144.428 86.3368 5598 2799
N 1347.39 62.4238 57.0967 5599 2800
N 1348.29 61.9384 57.5683 5600 2800
N 1379.82 117.385 45.447 5601 2801
N 1379.99 118.116 44.6144 5602 2801
N 1521.69 108.903 95.1491 5603 2802
N 1521.34 109.972 95.1998 5604 2802
N 1384.67 109.825 24.4353 5605 2803
N 1384.45 110.585 25.2285 5606 2803
N 1379.68 44.0185 48.1161 5607 2804
N 1379.21 44.9868 48.4057 5608 2804
N 1377.31 47.7447 34.8358 5609 2805
N 1378.08 48.3901 35.2765 5610 2805
N 1342.18 21.8999 130.142 5611 2806
N 1342.18 21.6675 129.061 5612 2806
N 1397.7 107.242 148.728 5613 2807
N 1396.73 107.142 149.272 5614 2807
N 1350.57 76.6604 142.695 5615 2808
N 1350.2 76.0457 143.575 5616 2808
N 1414.84 121.619 137.746 5617 2809
N 1413.94 121.433 138.379 5618 2809
N 1511.47 46.9879 11.4913 5619 2810
N 1510.57 46.3908 11.8319 5620 2810
N 1510.33 102.287 15.6997 5621 2811
N 1510.78 102.34 14.6837 5622 2811
N 1380.38 14.8061 103.724 5623 2812
N 1381.39 15.0169 104.164 5624 2812
N 1468.21 122.231 83.3476 5625 2813
N 1467.58 122.929 83.9611 5626 2813
N 1587.62 102.375 139.926 5627 2814
N 1587.02 103.273 139.652 5628 2814
N 1517.64 142.936 92.6801 5629 2815
N 1517.59 144.049 92.5643 5630 2815
N 1749.67 115.294 15.7161 5631 2816
N 1749.18 116.285 15.9196 5632 2816
N 1514.58 54.2903 148.269 5633 2817
N 1513.53 54.4159 148.66 5634 2817
N 1535.05 85.46040000000001 57.2844 5635 2818
N 1534.59 84.4948 57.6099 5636 2818
N 1536.12 86.6704 70.8933 5637 2819
N 1536.98 87.3192 70.59350000000001 5638 2819
N 1595.98 141.782 71.2492 5639 2820
N 1594.9 141.626 71.4708 5640 2820
N 1599.31 50.1674 24.3247 5641 2821
N 1598.86 50.6538 25.2318 5642 2821
N 1545.35 129.722 57.9698 5643 2822
N 1544.6 129.518 57.1426 5644 2822
N 1352.93 114.481 78.8498 5645 2823
N 1353.07 113.43 79.18219999999999 5646 2823
N 1343.95 38.3752 96.4905 5647 2824
N 1343.59 38.5673 97.5361 5648 2824
N 1427.44 90.12350000000001 82.6819 5649 2825
N 1428.28 89.64790000000001 83.2786 5650 2825
N 1362.37 71.4063 129.087 5651 2826
N 1361.41 71.6104 128.528 5652 2826
N 1366.51 62.823 62.6505 5653 2827
N 1365.45 63.0234 62.8714 5654 2827
N 1466.85 126.861 98.4585 5655 2828
N 1466.13 126.845 99.3128 5656 2828
N 1356.77 132.528 88.3135 5657 2829
N 1357.4 133.453 88.1507 5658 2829
N 1349.38 0.141049 7.46824 5659 2830
N 1350.11 149.794 6.68777 5660 2830
N 1558.52 17.2389 105.743 5661 2831
N 1557.43 17.4107 105.633 5662 2831
N 1506.48 23.6284 43.6214 5663 2832
N 1507.22 23.8709 44.4184 5664 2832
N 1342.18 110.601 67.04559999999999 5665 2833
N 1342.18 109.854 66.2114 5666 2833
N 1425.34 137.577 5.99635 5667 2834
N 1425.5 138.524 5.4556 5668 2834
N 1695.52 41.5379 111.531 5669 2835
N 1696.51 41.7784 111.985 5670 2835
N 1423.46 44.8255 15.959 5671 2836
N 1422.85 44.0231 16.4404 5672 2836
N 1399.96 39.7703 105.899 5673 2837
N 1398.93 40.0472 106.209 5674 2837
N 1526.9 60.0606 35.3242 5675 2838
N 1527.94 59.6745 35.1438 5676 2838
N 1348.07 129.005 41.5285 5677 2839
N 1347.24 128.679 40.8324 5678 2839
N 1375.61 44.915 50.8356 5679 2840
N 1374.8 45.488 51.3661 5680 2840
N 1438.92 63.2411 119.455 5681 2841
N 1439.65 63.1997 120.305 5682 2841
N 1382.79 109.547 48.413 5683 2842
N 1382.5 108.927 47.5208 5684 2842
N 1515.99 22.4175 62.503 5685 2843
N 1517.03 22.5781 62.8905 5686 2843
N 1475.38 30.0355 137.11 5687 2844
N 1474.33 30.0053 136.768 5688 2844
N 1359.67 57.038 31.6081 5689 2845
N 1360.28 57.6903 32.2908 5690 2845
N 1402.49 16.6206 31.7711 5691 2846
N 1401.59 16.9404 32.3472 5692 2846
N 1435.6 119.563 142.021 5693 2847
N 1434.77 118.798 141.931 5694 2847
N 1435.07 2.36348 91.1482 5695 2848
N 1434.15 2.45829 91.76309999999999 5696 2848
N 1547.37 3.58835 50.4288 5697 2849
N 1548.18 4.35509 50.2697 5698 2849
N 1472.34 9.135669999999999 148.454 5699 2850
N 1473.18 9.46241 147.775 5700 2850
N 1366.52 78.40009999999999 116.867 5701 2851
N 1366.4 77.4042 117.329 5702 2851
N 1409.57 117.392 119.772 5703 2852
N 1409.77 117.122 120.854 5704 2852
N 1554.29 31.7379 41.4362 5705 2853
N 1554.8 30.8955 41.9748 5706 2853
N 1394.83 99.36190000000001 140.611 5707 2854
N 1394.52 99.83750000000001 139.674 5708 2854
N 1574.39 25.212 74.26300000000001 5709 2855
N 1575.04 24.9141 73.3925 5710 2855
N 1475.99 9.44412 42.7669 5711 2856
N 1476.03 8.33957 42.7885 5712 2856
N 1442.73 56.8783 33.4041 5713 2857
N 1441.64 56.6885 33.4624 5714 2857
N 1366.71 147.576 138.035 5715 2858
N 1367.8 147.428 137.818 5716 2858
N 1437.72 29.4622 78.051 5717 2859
N 1438.75 29.8269 77.80070000000001 5718 2859
N 1546.12 147.707 119.765 5719 2860
N 1545.99 146.856 120.482 5720 2860
N 1406.13 11.0812 103.57 5721 2861
N 1406.87 11.8691 103.83 5722 2861
N 1389 101.057 33.506 5723 2862
N 1389.79 101.107 34.2951 5724 2862
N 1375.35 148.801 10.3608 5725 2863
N 1374.91 149.822 10.436 5726 2863
N 1422.72 128.333 31.3907 5727 2864
N 1423.71 128.747 31.1577 5728 2864
N 1377.32 9.502269999999999 113.568 5729 2865
N 1377.74 9.176920000000001 112.577 5730 2865
N 1421.85 10.4276 108.231 5731 2866
N 1422.12 9.34036 108.326 5732 2866
N 1342.18 54.2666 76.2717 5733 2867
N 1342.18 55.3272 76.6413 5734 2867
N 1481.51 110.82 140.286 5735 2868
N 1481.54 110.303 141.281 5736 2868
N 1437.55 54.5814 118.022 5737 2869
N 1438.27 53.9533 117.43 5738 2869
N 1359.15 111.171 30.9807 5739 2870
N 1358.04 111.222 30.8029 5740 2870
N 1444.35 119.593 52.9273 5741 2871
N 1443.31 119.788 53.2692 5742 2871
N 1452.55 65.3275 44.3576 5743 2872
N 1452.54 66.13379999999999 45.1231 5744 2872
N 1369.29 0.00656873 49.1379 5745 2873
N 1369.68 148.961 49.1416 5746 2873
N 1547.72 91.8207 12.1872 5747 2874
N 1548.27 91.43000000000001 13.0897 5748 2874
N 1442.06 88.48999999999999 117.561 5749 2875
N 1441.49 89.4376 117.814 5750 2875
N 1373.22 52.9811 37.1285 5751 2876
N 1372.43 53.5739 36.6315 5752 2876
N 1469.88 118.317 0.198408 5753 2877
N 1469.47 117.283 0.267426 5754 2877
N 1435.5 87.7132 5.74563 5755 2878
N 1434.57 88.26000000000001 5.47284 5756 2878
N 1758.96 61.3704 32.1682 5757 2879
N 1757.97 61.7335 32.5265 5758 2879
N 1342.18 40.0109 72.8969 5759 2880
N 1342.18 39.7268 73.96939999999999 5760 2880
N 1533.96 106.654 139.225 5761 2881
N 1534.41 107.307 140.016 5762 2881
N 1465.94 25.4801 91.437 5763 2882
N 1466.94 25.4668 91.9162 5764 2882
N 1388.42 111.034 30.8132 5765 2883
N 1389.27 111.741 30.9705 5766 2883
N 1837.81 92.1474 29.1332 5767 2884
N 1836.7 92.1476 28.9976 5768 2884
N 1415.77 122.857 117.438 5769 2885
N 1416.48 122.107 116.993 5770 2885
N 1642.61 55.2607 90.81570000000001 5771 2886
N 1641.93 54.5154 91.3169 5772 2886
N 1368.7 131.34 118.828 5773 2887
N 1367.69 130.882 119.057 5774 2887
N 1431.63 73.9228 127.847 5775 2888
N 1431.53 72.8807 128.224 5776 2888
N 1355.3 107.834 78.6005 5777 2889
N 1354.76 108.439 79.37350000000001 5778 2889
N 1414.84 24.0331 48.7776 5779 2890
N 1415.29 25.0375 48.5908 5780 2890
N 1479.29 8.10721 121.492 5781 2891
N 1478.99 8.37636 122.54 5782 2891
N 1442.58 96.8428 105.032 5783 2892
N 1443.42 96.8028 105.781 5784 2892
N 1559.33 105.736 131.51 5785 2893
N 1560.13 105.977 130.77 5786 2893
N 1370.58 70.90349999999999 35.4985 5787 2894
N 1370.2 71.95010000000001 35.3576 5788 2894
N 1371.44 45.9846 115.631 5789 2895
N 1372.28 45.6305 116.287 5790 2895
N 1372.77 121.005 118.441 5791 2896
N 1372.26 121.425 119.338 5792 2896
N 1423.04 13.6753 84.12220000000001 5793 2897
N 1422.17 14.1715 83.6275 5794 2897
N 1362.37 80.8916 16.4248 5795 2898
N 1361.29 81.19880000000001 16.5111 5796 2898
N 1463.23 87.54689999999999 5.71861 5797 2899
N 1463.58 86.5064 5.93229 5798 2899
N 1406.24 38.9651 44.9749 5799 2900
N 1406.98 39.8089 45.0351 5800 2900
N 1384.86 103.933 54.9311 5801 2901
N 1383.94 104.252 54.3861 5802 2901
N 1584.8 125.839 10.7669 5803 2902
N 1585.47 125.325 11.5118 5804 2902
N 1465.32 3.81459 117.875 5805 2903
N 1465.23 4.63451 118.631 5806 2903
N 1425.02 30.0513 128.097 5807 2904
N 1423.9 30.0846 128.246 5808 2904
N 1384.75 52.1804 126.833 5809 2905
N 1383.84 52.5711 127.389 5810 2905
N 1360.27 138.433 55.5413 5811 2906
N 1360.58 137.582 54.8651 5812 2906
N 1578.52 74.2513 42.8621 5813 2907
N 1577.74 74.88849999999999 43.3593 5814 2907
N 1358.95 96.4571 15.4849 5815 2908
N 1359.33 97.0412 16.3698 5816 2908
N 1377.9 112.296 98.35680000000001 5817 2909
N 1377.55 112.377 97.27889999999999 5818 2909
N 1345.38 99.04300000000001 79.37139999999999 5819 2910
N 1345.72 97.99169999999999 79.2419 5820 2910
N 1379.66 87.8451 26.0301 5821 2911
N 1380.6 87.4785 26.428 5822 2911
N 1365.43 54.169 142.847 5823 2912
N 1365.7 54.7887 143.737 5824 2912
N 1429.87 105.13 59.0041 5825 2913
N 1429.97 105.731 59.9399 5826 2913
N 1344.97 148.289 100.059 5827 2914
N 1345.31 147.481 100.752 5828 2914
N 1478.09 2.95742 83.0986 5829 2915
N 1479.02 2.49825 83.49290000000001 5830 2915
N 1519.15 98.5091 122.301 5831 2916
N 1518.7 99.18510000000001 121.525 5832 2916
N 1424.19 5.73876 78.9195 5833 2917
N 1424.77 4.78529 78.8254 5834 2917
N 1498.77 99.1362 85.1814 5835 2918
N 1497.89 98.5095 84.86790000000001 5836 2918
N 1481.64 120.763 110.124 5837 2919
N 1481.14 119.925 110.653 5838 2919
N 1593.94 140.236 77.64360000000001 5839 2920
N 1593.29 140.184 78.54130000000001 5840 2920
N 1351.74 22.1724 83.316 5841 2921
N 1352.67 22.087 83.9589 5842 2921
N 1351.04 5.64716 142.332 5843 2922
N 1350.42 5.05572 143.066 5844 2922
N 1493.49 24.9161 122.004 5845 2923
N 1492.79 25.7342 122.226 5846 2923
N 1428.44 65.8866 102.686 5847 2924
N 1427.35 65.63639999999999 102.631 5848 2924
N 1396.94 67.30029999999999 25.6773 5849 2925
N 1397 66.30710000000001 26.1838 5850 2925
N 1342.18 59.3388 7.53525 5851 2926
N 1342.18 59.7401 6.46646 5852 2926
N 1526.48 104.41 115.114 5853 2927
N 1527.03 104.267 114.144 5854 2927
N 1388.23 106.099 85.0107 5855 2928
N 1387.57 106.224 84.1215 5856 2928
N 1507.59 13.4596 122.074 5857 2929
N 1508.65 13.7181 121.838 5858 2929
N 1397.83 65.714 49.4183 5859 2930
N 1397.34 65.3527 48.4784 5860 2930
N 1342.18 43.9106 38.5828 5861 2931
N 1342.18 43.5986 39.6637 5862 2931
N 1624.97 7.32624 119.012 5863 2932
N 1625.08 6.54242 119.79 5864 2932
N 1462.04 147.505 12.2487 5865 2933
N 1461.81 146.414 12.1208 5866 2933
N 1437.27 55.4201 125.105 5867 2934
N 1437.35 55.9896 124.139 5868 2934
N 1408.63 140.111 145.417 5869 2935
N 1407.67 140.035 144.846 5870 2935
N 1513.72 131.545 12.4726 5871 2936
N 1514.79 131.521 12.8187 5872 2936
N 1418.73 100.604 145.574 5873 2937
N 1418.35 99.7323 146.137 5874 2937
N 1396.07 91.44199999999999 133.838 5875 2938
N 1396.51 91.3837 132.807 5876 2938
N 1474.25 31.9272 112.445 5877 2939
N 1474.16 30.8227 112.256 5878 2939
N 1404.56 13.6993 94.6341 5879 2940
N 1403.9 13.5407 95.53 5880 2940
N 1570.37 45.107 33.7696 5881 2941
N 1571.18 44.3805 34.0199 5882 2941
N 1505.61 134.755 142.938 5883 2942
N 1505.91 135.743 142.479 5884 2942
N 1418.61 34.3342 146.468 5885 2943
N 1418.48 35.0377 145.61 5886 2943
N 1460.06 119.315 136.087 5887 2944
N 1460.26 119.584 137.157 5888 2944
N 1523.06 40.6964 7.04253 5889 2945
N 1523.71 41.3984 7.60971 5890 2945
N 1369.67 127.413 94.4695 5891 2946
N 1368.99 128.045 95.1133 5892 2946
N 1430.49 15.9159 106.646 5893 2947
N 1431.34 15.7295 107.299 5894 2947
N 1402.3 122.776 91.4385 5895 2948
N 1402.4 122.214 90.4845 5896 2948
N 1440.61 18.3677 6.76791 5897 2949
N 1439.79 18.4783 7.51136 5898 2949
N 1662.2 45.6121 131.13 5899 2950
N 1661.22 45.2923 131.558 5900 2950
N 1463.91 79.55670000000001 94.014 5901 2951
N 1464.05 80.119 93.07470000000001 5902 2951
N 1555.13 82.29179999999999 120.581 5903 2952
N 1554.48 82.47020000000001 119.688 5904 2952
N 1509.22 45.7937 52.0982 5905 2953
N 1509.24 46.3902 51.1567 5906 2953
N 1418.25 41.9635 81.60890000000001 5907 2954
N 1417.38 42.2188 80.9538 5908 2954
N 1405.67 144.012 94.79430000000001 5909 2955
N 1406.63 144.064 95.37869999999999 5910 2955
N 1349.48 37.337 144.836 5911 2956
N 1349.97 38.3446 144.67 5912 2956
N 1621.53 16.1 62.5758 5913 2957
N 1622.53 15.8686 62.1204 5914 2957
N 1466.97 1.34792 41.1431 5915 2958
N 1467.91 0.808114 40.8144 5916 2958
N 1395.12 135.003 31.846 5917 2959
N 1394.74 134.96 30.7996 5918 2959
N 1392.02 7.49611 48.1027 5919 2960
N 1391.44 7.92545 47.2506 5920 2960
N 1657.5 7.34406 120.021 5921 2961
N 1657.56 7.40202 118.904 5922 2961
N 1455.69 99.0949 52.5503 5923 2962
N 1456.75 98.8687 52.2491 5924 2962
N 1345.53 89.0793 103.342 5925 2963
N 1345.35 88.7106 102.296 5926 2963
N 1389.61 134.297 125.669 5927 2964
N 1389.13 134.534 126.653 5928 2964
N 1479.2 35.7127 114.922 5929 2965
N 1478.41 36.4995 115.037 5930 2965
N 1348.81 44.1604 141.112 5931 2966
N 1349.18 45.1512 140.707 5932 2966
N 1410.34 63.6074 39.0402 5933 2967
N 1410.37 62.9488 39.9529 5934 2967
N 1389.3 19.8354 138.665 5935 2968
N 1388.23 19.5809 138.607 5936 2968
N 1448.31 144.044 100.662 5937 2969
N 1447.28 144.451 100.837 5938 2969
N 1371.53 12.4094 55.3012 5939 2970
N 1370.9 12.746 56.1562 5940 2970
N 1431.11 40.1162 26.1636 5941 2971
N 1430.34 39.7043 25.4479 5942 2971
N 1452.73 126.609 146.726 5943 2972
N 1452.39 127.147 147.65 5944 2972
N 1354.92 62.7116 90.97150000000001 5945 2973
N 1355.98 63.1405 90.95959999999999 5946 2973
N 1515.18 25.443 14.5026 5947 2974
N 1515.63 25.1879 15.5018 5948 2974
N 1437.34 148.142 124.67 5949 2975
N 1437.77 149.176 124.571 5950 2975
N 1358.92 148.714 33.9748 5951 2976
N 1359.21 147.703 34.3025 5952 2976
N 1505.41 62.7359 95.6358 5953 2977
N 1504.45 62.2234 95.85760000000001 5954 2977
N 1465.89 58.4112 148.909 5955 2978
N 1464.9 57.9032 148.887 5956 2978
N 1553.51 100.221 82.2037 5957 2979
N 1554.38 99.8532 81.57850000000001 5958 2979
N 1342.18 95.7959 55.233 5959 2980
N 1342.18 96.88120000000001 55.0964 5960 2980
N 1448.85 98.9864 86.34139999999999 5961 2981
N 1449.66 99.6405 85.93729999999999 5962 2981
N 1551.97 49.028 18.1014 5963 2982
N 1551.79 50.129 18.0158 5964 2982
N 1478.87 116.012 144.679 5965 2983
N 1479.36 115.398 143.849 5966 2983
N 1478.82 72.78740000000001 123.764 5967 2984
N 1478.6 71.7419 123.437 5968 2984
N 1342.18 88.74890000000001 4.25389 5969 2985
N 1342.18 89.1189 3.19096 5970 2985
N 1711.38 65.5283 93.1587 5971 2986
N 1710.64 64.8801 93.69410000000001 5972 2986
N 1498.78 75.6095 122.813 5973 2987
N 1499.79 76.0093 122.563 5974 2987
N 1394.57 145.215 100.265 5975 2988
N 1393.47 145.237 100.039 5976 2988
N 1472.76 141.178 19.148 5977 2989
N 1472.23 141.531 18.221 5978 2989
N 1393.98 147.067 119.583 5979 2990
N 1393.81 148.174 119.705 5980 2990
N 1351.99 147.727 54.4902 5981 2991
N 1351.94 147.202 55.4898 5982 2991
N 1387.44 60.4298 41.4706 5983 2992
N 1386.67 61.0008 42.0656 5984 2992
N 1410.23 20.4284 3.43198 5985 2993
N 1409.5 20.4662 4.28284 5986 2993
N 1578.74 48.642 62.8695 5987 2994
N 1578.09 48.3287 63.7153 5988 2994
N 1396.75 22.4525 72.9448 5989 2995
N 1396.94 22.8474 71.9171 5990 2995
N 1506.46 36.8971 34.2561 5991 2996
N 1505.8 37.5284 33.594 5992 2996
N 1363.61 68.25 57.9025 5993 2997
N 1362.77 68.4868 58.607 5994 2997
N 1377.47 61.8632 136.724 5995 2998
N 1377.05 60.9622 137.223 5996 2998
N 1471.01 108.386 98.5269 5997 2999
N 1470.72 107.303 98.6016 5998 2999
N 1502.69 32.9902 79.7213 5999 3000
N 1502.1 32.9798 80.67149999999999 6000 3000
N 1380.02 90.9248 127.911 6001 3001
N 1380.75 90.8587 127.063 6002 3001
N 1718.95 56.5256 103.255 6003 3002
N 1719.44 57.2972 102.598 6004 3002
N 1458.26 112.671 82.8546 6005 3003
N 1458.73 113.676 82.95529999999999 6006 3003
N 1404.43 33.7654 133.352 6007 3004
N 1403.57 33.1001 133.597 6008 3004
N 1386.01 114.292 3.98652 6009 3005
N 1387.1 114.509 4.16104 6010 3005
N 1457.05 116.443 127.418 6011 3006
N 1456.01 116.201 127.053 6012 3006
N 1454.5 47.2433 71.584 6013 3007
N 1454.11 48.2291 71.23909999999999 6014 3007
N 1462.17 109.601 127.961 6015 3008
N 1461.74 110.622 127.798 6016 3008
N 1535.7 109.749 109.771 6017 3009
N 1535.67 110.274 108.761 6018 3009
N 1560.12 8.35399 13.8415 6019 3010
N 1560.35 7.90628 14.8635 6020 3010
N 1513.09 15.1552 69.5932 6021 3011
N 1513.41 14.9012 68.5509 6022 3011
N 1450.29 63.8551 112.578 6023 3012
N 1450.85 63.0344 113.099 6024 3012
N 1404.57 6.13084 7.42682 6025 3013
N 1404.2 5.39495 6.67647 6026 3013
N 1530.81 15.0296 85.1379 6027 3014
N 1530.63 13.9283 85.0605 6028 3014
N 1525.88 24.8504 66.738 6029 3015
N 1525.52 23.8616 66.3732 6030 3015
N 1430.76 39.4737 50.8241 6031 3016
N 1430.21 38.9783 49.979 6032 3016
N 1375.86 40.7687 34.355 6033 3017
N 1376.48 39.8716 34.0792 6034 3017
N 1383.54 118.92 55.0352 6035 3018
N 1384 119.932 54.9591 6036 3018
N 1537.65 39.5975 136.253 6037 3019
N 1538.59 39.7207 135.679 6038 3019
N 1839.6 103.889 63.3628 6039 3020
N 1840.7 103.733 63.2291 6040 3020
N 1385.2 46.0148 114.472 6041 3021
N 1384.99 47.1394 114.478 6042 3021
N 1350.49 54.5675 66.3344 6043 3022
N 1349.99 53.7375 66.94159999999999 6044 3022
N 1496.13 108.107 40.8372 6045 3023
N 1495.46 108.738 41.504 6046 3023
N 1596.76 105.544 14.7408 6047 3024
N 1597.23 105.905 13.7943 6048 3024
N 1428.41 147.761 61.6484 6049 3025
N 1428.25 148.565 62.4241 6050 3025
N 1467.22 80.93129999999999 16.2308 6051 3026
N 1467.07 81.1972 17.3134 6052 3026
N 1573.9 141.847 129.59 6053 3027
N 1573.82 141.412 128.568 6054 3027
N 1440.23 102.906 123.242 6055 3028
N 1439.79 102.422 122.343 6056 3028
N 1459.59 19.9625 62.9889 6057 3029
N 1459.32 19.0264 63.5463 6058 3029
N 1446.62 79.8809 85.8386 6059 3030
N 1447.73 79.7612 85.7856 6060 3030
N 1532.15 136.483 92.8914 6061 3031
N 1531.38 137.094 92.34699999999999 6062 3031
N 1507.32 57.6427 53.0729 6063 3032
N 1507.46 57.3515 51.9984 6064 3032
N 1404.47 129.173 53.6436 6065 3033
N 1404.1 130.089 54.1275 6066 3033
N 1411.44 48.8288 78.4682 6067 3034
N 1410.68 48.0161 78.29640000000001 6068 3034
N 1379.55 122.953 90.88939999999999 6069 3035
N 1379.85 121.871 90.9118 6070 3035
N 1558.3 102.114 2.29162 6071 3036
N 1558.32 103.122 2.74641 6072 3036
N 1368.34 123.553 102.988 6073 3037
N 1368.79 124.529 102.856 6074 3037
N 1450.78 15.7184 57.6942 6075 3038
N 1450.65 15.7482 56.5736 6076 3038
N 1373.76 137.327 15.7846 6077 3039
N 1373.79 136.202 15.8614 6078 3039
N 1429.15 104.294 69.5381 6079 3040
N 1429.98 104.951 69.9308 6080 3040
N 1399.01 134.114 30.7986 6081 3041
N 1398.75 133.595 29.8398 6082 3041
N 1405.54 21.7111 58.2751 6083 3042
N 1404.52 21.8301 57.8279 6084 3042
N 1376.61 40.5596 100.509 6085 3043
N 1377.08 41.3224 101.191 6086 3043
N 1342.18 62.712 4.0726 6087 3044
N 1342.18 63.0435 5.1298 6088 3044
N 1417.07 101.65 83.7803 6089 3045
N 1416.54 100.871 84.39 6090 3045
N 1414.94 137.557 82.4355 6091 3046
N 1413.88 137.533 82.7572 6092 3046
N 1368.58 14.7504 38.9668 6093 3047
N 1368.81 13.7101 39.3327 6094 3047
N 1395.54 103.107 108.633 6095 3048
N 1395.62 102.04 108.299 6096 3048
N 1580.5 97.38939999999999 110.9 6097 3049
N 1580.62 97.84690000000001 109.866 6098 3049
N 1490.51 46.8652 145.317 6099 3050
N 1489.45 46.961 144.957 6100 3050
N 1370.32 32.7059 108.522 6101 3051
N 1370.32 32.9446 109.625 6102 3051
N 1409.66 102.09 43.9508 6103 3052
N 1409.25 101.178 43.4391 6104 3052
N 1350.19 1.54688 11.937 6105 3053
N 1349.1 1.35195 11.768 6106 3053
N 1446.8 47.0033 4.7658 6107 3054
N 1445.8 46.8282 5.25594 6108 3054
N 1486.28 110.36 17.0396 6109 3055
N 1486.22 110.414 15.9272 6110 3055
N 1389.89 73.7996 97.2349 6111 3056
N 1389.98 72.74420000000001 97.577 6112 3056
N 1435.67 106.269 90.0411 6113 3057
N 1436.42 105.466 90.1602 6114 3057
N 1394.32 14.2213 67.85129999999999 6115 3058
N 1393.33 14.5752 67.4611 6116 3058
N 1629.28 127.522 134.166 6117 3059
N 1629.44 127.358 135.268 6118 3059
N 1369.38 17.0682 83.3918 6119 3060
N 1368.34 17.4594 83.2022 6120 3060
N 1424.81 48.6545 2.9898 6121 3061
N 1425.79 49.0573 3.3517 6122 3061
N 1434.91 23.6617 145.758 6123 3062
N 1435.44 23.6799 144.755 6124 3062
N 1547.09 131.027 38.9148 6125 3063
N 1547.41 131.135 37.8422 6126 3063
N 1354.18 38.0747 29.9438 6127 3064
N 1353.91 38.809 29.1531 6128 3064
N 1367.67 48.3892 147.088 6129 3065
N 1368.11 48.1476 146.106 6130 3065
N 1369.89 76.2572 9.667160000000001 6131 3066
N 1370.78 75.70569999999999 10.0928 6132 3066
N 1463.26 89.75069999999999 50.757 6133 3067
N 1463.62 88.82389999999999 51.259 6134 3067
N 1372.76 141.044 126.276 6135 3068
N 1372.65 140.014 125.865 6136 3068
N 1516.03 17.536 65.95650000000001 6137 3069
N 1515.4 17.5828 66.87130000000001 6138 3069
N 1445.48 136.256 85.375 6139 3070
N 1445.16 137.096 84.7152 6140 3070
N 1384.45 62.9774 6.20495 6141 3071
N 1384.67 61.9002 6.45539 6142 3071
N 1510.72 2.19787 10.4536 6143 3072
N 1511.23 3.13734 10.7933 6144 3072
N 1557.87 7.71574 0.631044 6145 3073
N 1557.7 7.33256 149.583 6146 3073
N 1409.68 95.5852 136.066 6147 3074
N 1408.59 95.646 135.859 6148 3074
N 1552 38.8448 113.323 6149 3075
N 1551.68 37.7698 113.316 6150 3075
N 1374.69 10.2907 71.02070000000001 6151 3076
N 1375.44 10.7015 70.2851 6152 3076
N 1527.81 54.004 19.5621 6153 3077
N 1528.86 54.0115 19.1882 6154 3077
N 1596.78 42.9735 126.761 6155 3078
N 1595.83 42.8179 127.363 6156 3078
N 1428.14 70.09869999999999 140.641 6157 3079
N 1427.85 70.96510000000001 141.28 6158 3079
N 1433.99 87.0578 25.8766 6159 3080
N 1433.32 86.1772 26.0133 6160 3080
N 1531.37 48.604 9.984080000000001 6161 3081
N 1532.16 48.6961 9.18083 6162 3081
N 1585.74 133.14 42.1183 6163 3082
N 1584.92 133.388 42.8336 6164 3082
N 1555.45 52.2242 98.4619 6165 3083
N 1555.05 52.6337 99.434 6166 3083
N 1342.18 31.4344 130.349 6167 3084
N 1342.18 30.4244 130.787 6168 3084
N 1589.39 131.038 136.059 6169 3085
N 1589.54 129.954 135.864 6170 3085
N 1661.14 128.433 62.3688 6171 3086
N 1662.09 128.83 61.9325 6172 3086
N 1342.18 87.7843 149.833 6173 3087
N 1342.18 86.7162 0.167793 6174 3087
N 1365.52 39.1871 17.0577 6175 3088
N 1365.69 39.5033 15.9941 6176 3088
N 1539.72 110.839 60.8125 6177 3089
N 1539.02 109.986 60.7023 6178 3089
N 1382.24 138.557 114.293 6179 3090
N 1381.62 138.646 113.372 6180 3090
N 1587.63 74.4187 14.4175 6181 3091
N 1588.52 75.0213 14.0753 6182 3091
N 1381.95 24.0949 139.222 6183 3092
N 1383.04 23.9954 139.4 6184 3092
N 1450.74 142.364 72.69289999999999 6185 3093
N 1451.63 143.052 72.7253 6186 3093
N 1357.61 23.9992 106.752 6187 3094
N 1358.01 22.9639 106.633 6188 3094
N 1400.07 21.8743 14.2442 6189 3095
N 1399.05 21.3897 14.2842 6190 3095
N 1446.76 82.1435 143.233 6191 3096
N 1446 81.39830000000001 142.921 6192 3096
N 1422.99 61.9387 103.261 6193 3097
N 1421.94 61.7668 103.621 6194 3097
N 1349.95 142.993 98.8976 6195 3098
N 1349.34 143.494 99.6979 6196 3098
N 1350.7 142.746 45.6568 6197 3099
N 1350.88 141.932 46.4 6198 3099
N 1372.67 20.0552 145.234 6199 3100
N 1372.65 20.4156 144.168 6200 3100
N 1572 129.904 87.95489999999999 6201 3101
N 1571.87 129.299 87.01990000000001 6202 3101
N 1450.36 34.2438 47.6987 6203 3102
N 1449.54 34.6113 48.3855 6204 3102
N 1360.8 46.1612 95.3563 6205 3103
N 1360.35 45.4482 94.63509999999999 6206 3103
N 1393.25 25.2474 43.9929 6207 3104
N 1393.38 25.4174 42.9012 6208 3104
N 1548.68 48.6681 105.257 6209 3105
N 1549.65 48.1016 105.227 6210 3105
N 1405.36 144.56 37.0128 6211 3106
N 1406.38 144.306 36.6555 6212 3106
N 1359.63 17.0421 71.90770000000001 6213 3107
N 1359.66 15.9249 71.89190000000001 6214 3107
N 1419.47 105.241 114.512 6215 3108
N 1419.44 106.354 114.699 6216 3108
N 1370.1 7.01771 70.4419 6217 3109
N 1369.53 6.13995 70.01139999999999 6218 3109
N 1495.37 145.452 105.346 6219 3110
N 1494.98 146.219 106.062 6220 3110
N 1438.72 70.8985 1.11303 6221 3111
N 1438.03 71.4794 0.449878 6222 3111
N 1439.33 84.36369999999999 94.98309999999999 6223 3112
N 1439.55 85.43049999999999 95.2042 6224 3112
N 1472.86 75.2368 67.5403 6225 3113
N 1473.19 75.5967 68.53879999999999 6226 3113
N 1464.4 9.480639999999999 121.54 6227 3114
N 1464.61 8.80804 120.666 6228 3114
N 1430.81 26.085 149.356 6229 3115
N 1429.93 26.6547 148.996 6230 3115
N 1449.56 117.798 112.009 6231 3116
N 1450.5 117.51 111.479 6232 3116
N 1382.74 102.003 0.662915 6233 3117
N 1382.51 103.032 1.03056 6234 3117
N 1452.1 143.681 43.5466 6235 3118
N 1451.84 143.177 42.5817 6236 3118
N 1509.91 99.3578 112.661 6237 3119
N 1509.54 98.42 112.198 6238 3119
N 1696.98 126.635 122.393 6239 3120
N 1696.72 125.908 121.586 6240 3120
N 1443.45 61.546 130.563 6241 3121
N 1442.49 61.4027 131.116 6242 3121
N 1464.5 104.309 10.6048 6243 3122
N 1465.51 104.556 11.0224 6244 3122
N 1397.84 3.04227 110.697 6245 3123
N 1397.14 2.95948 111.576 6246 3123
N 1471.56 51.6878 24.8546 6247 3124
N 1472.11 50.7541 24.515 6248 3124
N 1400.85 107.294 43.2928 6249 3125
N 1401.05 106.548 42.4743 6250 3125
N 1462.41 97.73999999999999 123.853 6251 3126
N 1462.3 96.64190000000001 123.616 6252 3126
N 1441.8 80.69450000000001 123.491 6253 3127
N 1441.99 80.0262 122.626 6254 3127
N 1393.58 99.60850000000001 98.29170000000001 6255 3128
N 1394.11 100.577 98.56019999999999 6256 3128
N 1439.89 24.8893 9.0571 6257 3129
N 1439.7 25.996 9.017620000000001 6258 3129
N 1584.19 123.175 139.868 6259 3130
N 1584.32 122.475 140.739 6260 3130
N 1363.44 52.9875 84.01900000000001 6261 3131
N 1364.41 53.1808 83.4569 6262 3131
N 1371.86 43.565 137.942 6263 3132
N 1370.84 43.8747 137.65 6264 3132
N 1608.93 131.524 13.0571 6265 3133
N 1609.49 130.735 12.4777 6266 3133
N 1449 112.289 15.6584 6267 3134
N 1448.77 112.244 16.7477 6268 3134
N 1467.46 27.4255 56.0859 6269 3135
N 1467.66 26.3257 56.2963 6270 3135
N 1387.56 44.8281 63.6998 6271 3136
N 1386.51 45.0613 63.3781 6272 3136
N 1543.2 110.855 45.1781 6273 3137
N 1542.13 110.562 45.0798 6274 3137
N 1476.82 19.1317 149.868 6275 3138
N 1475.86 18.8163 149.407 6276 3138
N 1469.34 139.836 14.5724 6277 3139
N 1469.47 138.737 14.758 6278 3139
N 1377.68 15.5512 74.7842 6279 3140
N 1378.65 16.1029 74.8484 6280 3140
N 1566.47 130.175 105.831 6281 3141
N 1566.44 129.896 106.91 6282 3141
N 1474 74.5869 80.7277 6283 3142
N 1474.28 74.8207 81.8036 6284 3142
N 1365.18 77.8292 91.81610000000001 6285 3143
N 1365.58 76.78879999999999 91.8813 6286 3143
N 1485.9 52.0371 127.094 6287 3144
N 1486.45 51.6156 127.98 6288 3144
N 1358.33 8.56025 66.71729999999999 6289 3145
N 1358.82 7.61886 67.1206 6290 3145
N 1447.9 113.505 97.6695 6291 3146
N 1448.58 112.686 98.0317 6292 3146
N 1570.5 83.9295 35.9522 6293 3147
N 1570.72 84.46380000000001 36.9081 6294 3147
N 1444.2 42.8857 80.511 6295 3148
N 1444.45 43.6969 79.79300000000001 6296 3148
N 1504.43 93.6151 2.52424 6297 3149
N 1504.84 93.2191 3.49663 6298 3149
N 1352.64 60.1203 128.152 6299 3150
N 1352.56 60.7067 127.196 6300 3150
N 1581.26 102.661 36.4566 6301 3151
N 1580.98 103.646 36.9259 6302 3151
N 1370.74 2.61728 84.0463 6303 3152
N 1370.38 2.80585 85.0823 6304 3152
N 1506.12 148.507 131.691 6305 3153
N 1505.13 148.506 132.222 6306 3153
N 1417.13 134.251 104.918 6307 3154
N 1418.06 134.762 105.308 6308 3154
N 1375.26 145.911 68.0578 6309 3155
N 1374.27 145.436 67.87609999999999 6310 3155
N 1422.82 135.548 144.553 6311 3156
N 1421.75 135.418 144.282 6312 3156
N 1505.65 86.5164 119.701 6313 3157
N 1506.65 86.11799999999999 120.055 6314 3157
N 1599.73 30.4916 133.513 6315 3158
N 1600.61 30.6992 132.853 6316 3158
N 1488.56 87.876 140.535 6317 3159
N 1488.54 87.81619999999999 139.406 6318 3159
N 1430.35 121.562 100.61 6319 3160
N 1429.79 120.627 100.368 6320 3160
N 1431.87 115.727 86.84050000000001 6321 3161
N 1432.15 115.824 85.7615 6322 3161
N 1389.09 94.69370000000001 118.16 6323 3162
N 1389.65 94.0068 118.839 6324 3162
N 1839.41 86.8651 96.7672 6325 3163
N 1840.01 86.5048 95.89400000000001 6326 3163
N 1599.62 88.1185 101.646 6327 3164
N 1599.76 87.593 100.668 6328 3164
N 1378.48 90.5197 135.028 6329 3165
N 1377.61 90.0637 135.525 6330 3165
N 1421.73 26.0104 26.8538 6331 3166
N 1420.81 25.6038 27.3714 6332 3166
N 1347.52 38.786 98.574 6333 3167
N 1347.36 38.9597 99.68049999999999 6334 3167
N 1369.07 17.8626 145.523 6335 3168
N 1367.97 17.8051 145.444 6336 3168
N 1422.57 30.1961 87.0094 6337 3169
N 1422.19 29.4674 87.7597 6338 3169
N 1770.79 102.677 149.035 6339 3170
N 1770.31 103.183 149.912 6340 3170
N 1350.93 49.2146 99.7957 6341 3171
N 1351.84 48.9878 99.1802 6342 3171
N 1654.08 69.09 105.438 6343 3172
N 1654.37 68.01090000000001 105.524 6344 3172
N 1357.62 67.8047 66.6129 6345 3173
N 1357.38 66.7223 66.4139 6346 3173
N 1367.64 147.975 14.7115 6347 3174
N 1367.03 148.009 13.7713 6348 3174
N 1517.93 119.489 48.8385 6349 3175
N 1517.13 118.809 48.4852 6350 3175
N 1461.34 26.7464 84.0398 6351 3176
N 1460.48 27.4246 84.2847 6352 3176
N 1519.25 148.347 96.5115 6353 3177
N 1518.69 147.374 96.6752 6354 3177
N 1437.6 75.1058 23.1439 6355 3178
N 1437.14 76.1366 23.0519 6356 3178
N 1485.21 144.481 12.6225 6357 3179
N 1484.58 143.611 12.3134 6358 3179
N 1601.45 55.9893 130.696 6359 3180
N 1600.77 56.2022 131.555 6360 3180
N 1764.52 107.437 91.9562 6361 3181
N 1764.09 106.397 92.0407 6362 3181
N 1523.83 49.9371 84.0295 6363 3182
N 1524.47 50.5349 83.3284 6364 3182
N 1711.49 58.6049 130.809 6365 3183
N 1711.34 59.6344 130.392 6366 3183
N 1562.4 143.996 143.738 6367 3184
N 1561.84 144.333 144.625 6368 3184
N 1421.3 144.117 84.11020000000001 6369 3185
N 1421.02 145.144 84.4616 6370 3185
N 1408.99 9.331250000000001 27.5722 6371 3186
N 1409.01 10.0032 28.4672 6372 3186
N 1425.43 89.0692 19.912 6373 3187
N 1424.68 89.81829999999999 20.2856 6374 3187
N 1460.96 82.6842 3.08386 6375 3188
N 1460.04 82.38509999999999 3.64352 6376 3188
N 1450.02 145.445 9.932130000000001 6377 3189
N 1450.56 146.116 10.6664 6378 3189
N 1502.66 65.16589999999999 144.913 6379 3190
N 1502.66 66.13890000000001 144.353 6380 3190
N 1444.58 43.8377 96.6892 6381 3191
N 1444.84 42.7835 96.45820000000001 6382 3191
N 1423.41 120.748 136.158 6383 3192
N 1423.46 121.86 135.994 6384 3192
N 1583.51 142.212 42.5722 6385 3193
N 1583.9 143.178 42.9688 6386 3193
N 1591.38 144.245 89.1101 6387 3194
N 1590.33 144.081 89.49079999999999 6388 3194
N 1391.67 31.8162 20.4641 6389 3195
N 1391 30.9621 20.7384 6390 3195
N 1431.48 31.9269 130.336 6391 3196
N 1432.35 32.0995 129.639 6392 3196
N 1613.1 98.1802 15.1762 6393 3197
N 1612.42 97.3784 15.5771 6394 3197
N 1379.91 52.7393 24.9715 6395 3198
N 1380.24 53.8145 24.9712 6396 3198
N 1375.17 65.0877 9.27008 6397 3199
N 1375.72 65.00700000000001 8.29594 6398 3199
N 1513.43 35.5175 30.7196 6399 3200
N 1512.75 34.6486 30.5334 6400 3200
N 1447.37 24.0262 130.294 6401 3201
N 1446.44 23.4293 130.089 6402 3201
N 1562.39 90.2927 13.5997 6403 3202
N 1562.04 90.34229999999999 12.5372 6404 3202
N 1365.47 24.7227 88.3271 6405 3203
N 1366.38 24.9703 87.7427 6406 3203
N 1374.77 58.9155 71.274 6407 3204
N 1375.25 58.7878 72.2794 6408 3204
N 1546.08 39.1941 132.049 6409 3205
N 1545.03 38.9995 132.346 6410 3205
N 1427.56 113.762 62.0276 6411 3206
N 1427.96 114.805 61.9052 6412 3206
N 1392.82 1.52168 95.2966 6413 3207
N 1392.27 1.79466 94.3595 6414 3207
N 1436.2 17.8033 58.0446 6415 3208
N 1437.15 17.2221 58.0376 6416 3208
N 1436.42 118.73 6.94036 6417 3209
N 1437.39 118.279 7.27469 6418 3209
N 1545.36 77.5856 37.9766 6419 3210
N 1544.3 77.8584 38.2106 6420 3210
N 1417.05 141.052 31.5681 6421 3211
N 1417.49 140.041 31.7434 6422 3211
N 1502.14 54.2174 66.0975 6423 3212
N 1502.1 55.0722 66.8181 6424 3212
N 1368.78 83.8562 45.6155 6425 3213
N 1368.31 83.0513 44.9928 6426 3213
N 1351.1 69.801 106.406 6427 3214
N 1350.31 69.2687 105.814 6428 3214
N 1538.25 65.6512 102.656 6429 3215
N 1538.72 65.51600000000001 103.666 6430 3215
N 1480.1 37.26 16.1345 6431 3216
N 1480.77 38.1508 16.2774 6432 3216
N 1383.29 122.196 0.733703 6433 3217
N 1384.35 122.397 1.00629 6434 3217
N 1414.95 139.895 69.2621 6435 3218
N 1414.58 140.938 69.38330000000001 6436 3218
N 1643.19 60.0882 88.7715 6437 3219
N 1643.62 61.1081 88.59950000000001 6438 3219
N 1437.55 142.542 130.021 6439 3220
N 1438.48 142.791 129.464 6440 3220
N 1370.49 38.9762 108.907 6441 3221
N 1369.83 38.2717 109.506 6442 3221
N 1408.42 72.35809999999999 149.191 6443 3222
N 1409.21 73.116 149.4 6444 3222
N 1502.49 40.9958 114.331 6445 3223
N 1502.59 40.4546 115.303 6446 3223
N 1469.48 111.755 89.5286 6447 3224
N 1469.69 112.386 88.62260000000001 6448 3224
N 1694.49 89.10469999999999 22.5823 6449 3225
N 1694.87 89.31310000000001 21.5408 6450 3225
N 1365.39 114.336 23.7554 6451 3226
N 1365.11 115.389 23.969 6452 3226
N 1429.83 148.041 146.481 6453 3227
N 1429.5 147.342 145.653 6454 3227
N 1437.83 85.5299 106.466 6455 3228
N 1437.21 86.2385 105.863 6456 3228
N 1484.25 83.1215 118.711 6457 3229
N 1485.25 83.6129 118.661 6458 3229
N 1372.32 100.22 130.721 6459 3230
N 1373.02 101.059 130.846 6460 3230
N 1342.18 61.6609 100.262 6461 3231
N 1342.18 61.6674 99.1465 6462 3231
N 1639.36 136.88 58.5311 6463 3232
N 1638.5 137.021 59.2415 6464 3232
N 1365.4 120.088 68.9088 6465 3233
N 1364.57 119.552 68.3698 6466 3233
N 1404.29 142.962 2.04106 6467 3234
N 1403.97 143.996 1.74501 6468 3234
N 1459.6 100.403 40.6992 6469 3235
N 1459.91 101.217 40.0007 6470 3235
N 1539.8 2.79632 114.198 6471 3236
N 1539.54 1.86031 113.653 6472 3236
N 1510.1 108.504 29.1687 6473 3237
N 1511.09 109.032 29.2625 6474 3237
N 1389.4 140.249 30.2073 6475 3238
N 1389.38 140.927 29.3078 6476 3238
N 1438.93 146.653 2.08619 6477 3239
N 1437.89 146.457 1.69634 6478 3239
N 1544.45 87.7513 68.43040000000001 6479 3240
N 1543.49 87.4739 67.9147 6480 3240
N 1393.72 142.44 89.99120000000001 6481 3241
N 1394.64 142.63 90.6096 6482 3241
N 1342.18 34.7107 82.3412 6483 3242
N 1342.18 34.8657 81.23439999999999 6484 3242
N 1381.95 79.3814 76.4323 6485 3243
N 1381.63 80.4603 76.4187 6486 3243
N 1619.87 67.27760000000001 141.136 6487 3244
N 1620.75 66.71080000000001 140.73 6488 3244
N 1414.97 36.2769 1.21805 6489 3245
N 1414.73 37.3366 0.976013 6490 3245
N 1483.21 81.06910000000001 98.7638 6491 3246
N 1482.67 80.90560000000001 99.7124 6492 3246
N 1397.86 0.450024 97.99290000000001 6493 3247
N 1398 149.643 98.75069999999999 6494 3247
N 1376.16 124.426 84.50369999999999 6495 3248
N 1376.7 125.406 84.5714 6496 3248
N 1355.59 138.144 96.48990000000001 6497 3249
N 1355.27 139.167 96.8368 6498 3249
N 1433.91 117.484 146.431 6499 3250
N 1434.72 118.181 146.123 6500 3250
N 1441.59 132.154 31.7407 6501 3251
N 1442.16 132.304 32.6822 6502 3251
N 1430.35 19.6086 27.2747 6503 3252
N 1430.29 20.6775 26.9509 6504 3252
N 1447.65 97.0214 113.476 6505 3253
N 1447.54 97.3486 114.541 6506 3253
N 1444.07 40.8042 45.087 6507 3254
N 1443.66 40.965 44.0527 6508 3254
N 1501.99 59.9725 106.966 6509 3255
N 1501.18 59.1922 106.937 6510 3255
N 1574.34 102.232 26.2529 6511 3256
N 1575.29 101.911 25.7467 6512 3256
N 1444.17 52.9084 88.6546 6513 3257
N 1444.06 54.0169 88.4922 6514 3257
N 1445.54 113.988 45.8802 6515 3258
N 1446.21 113.112 46.009 6516 3258
N 1413.75 77.11069999999999 134.185 6517 3259
N 1413.01 76.28360000000001 134.32 6518 3259
N 1473.57 140.741 129.344 6519 3260
N 1473.21 141.083 130.345 6520 3260
N 1522.61 63.3361 113.941 6521 3261
N 1522.95 64.3905 113.845 6522 3261
N 1362.96 50.348 77.1126 6523 3262
N 1363.32 51.4111 77.1437 6524 3262
N 1353.37 81.3347 93.0087 6525 3263
N 1352.57 80.6686 92.59350000000001 6526 3263
N 1366.95 35.0613 27.604 6527 3264
N 1366.63 34.5866 28.557 6528 3264
N 1529 49.6555 85.4569 6529 3265
N 1528.07 49.7294 86.083 6530 3265
N 1368.62 36.5071 21.0313 6531 3266
N 1367.76 36.1634 20.4515 6532 3266
N 1394.91 100.774 71.57129999999999 6533 3267
N 1394.21 100.067 71.06870000000001 6534 3267
N 1559.87 111.557 110.956 6535 3268
N 1560.93 111.492 111.3 6536 3268
N 1448.83 111.283 101.507 6537 3269
N 1448.66 111.688 102.537 6538 3269
N 1580.71 70.81950000000001 18.8649 6539 3270
N 1581.82 71.0218 18.8724 6540 3270
N 1453.49 104.558 115.587 6541 3271
N 1452.43 104.423 115.236 6542 3271
N 1450.31 6.11669 14.7978 6543 3272
N 1450.42 5.76078 13.7444 6544 3272
N 1483.13 107.037 68.81699999999999 6545 3273
N 1483.95 106.644 69.4631 6546 3273
N 1491.97 127.035 22.1674 6547 3274
N 1492.53 127.693 22.88 6548 3274
N 1352.6 93.2099 125.451 6549 3275
N 1353.16 93.71040000000001 126.283 6550 3275
N 1451.56 53.1196 126.013 6551 3276
N 1451.05 52.2948 126.554 6552 3276
N 1695.27 112.441 9.347759999999999 6553 3277
N 1695.81 111.454 9.23068 6554 3277
N 1434.9 57.6257 40.878 6555 3278
N 1434.54 57.901 39.8492 6556 3278
N 1991.76 116.72 127.55 6557 3279
N 1991.7 115.641 127.829 6558 3279
N 1557.12 103.303 88.1782 6559 3280
N 1557.92 103.237 87.3954 6560 3280
N 1642.83 133.703 125.312 6561 3281
N 1641.88 134.274 125.261 6562 3281
N 1483.31 36.4656 40.0951 6563 3282
N 1484.42 36.5114 40.2446 6564 3282
N 1552.49 67.9854 133.441 6565 3283
N 1552.63 67.4516 134.418 6566 3283
N 1400.13 73.0338 107.3 6567 3284
N 1400.8 73.9239 107.181 6568 3284
N 1453.45 98.214 133.764 6569 3285
N 1452.98 99.2094 133.971 6570 3285
N 1423.27 45.7727 23.395 6571 3286
N 1422.64 46.462 22.8061 6572 3286
N 1624.5 133.235 58.4682 6573 3287
N 1623.85 133.211 59.3936 6574 3287
N 1448.66 85.38590000000001 76.7418 6575 3288
N 1449.21 86.01730000000001 75.9969 6576 3288
N 1451.37 45.8649 102.941 6577 3289
N 1452.07 46.0972 102.091 6578 3289
N 1418.51 52.6631 33.3673 6579 3290
N 1417.92 52.7363 34.3289 6580 3290
N 1552.25 60.1735 56.9555 6581 3291
N 1551.76 60.8367 57.714 6582 3291
N 1347.87 37.4194 106.036 6583 3292
N 1348.48 38.1113 106.629 6584 3292
N 1351.89 43.7603 80.78879999999999 6585 3293
N 1351.61 44.8377 80.6913 6586 3293
N 1367.7 2.64198 119.762 6587 3294
N 1367.47 1.54443 119.878 6588 3294
N 1433.02 97.5119 15.2922 6589 3295
N 1433.9 97.98009999999999 15.8335 6590 3295
N 1505.46 15.6833 132.134 6591 3296
N 1505.1 14.8826 132.823 6592 3296
N 1700.87 11.647 2.50404 6593 3297
N 1700.88 12.5411 3.1749 6594 3297
N 1527.88 76.10290000000001 1.35325 6595 3298
N 1528.49 75.434 2.04308 6596 3298
N 1453.55 66.11579999999999 65.71420000000001 6597 3299
N 1454.41 65.8447 65.0399 6598 3299
N 1937.64 61.4325 18.8328 6599 3300
N 1936.73 60.9358 19.2504 6600 3300
N 1347.35 1.92251 80.44670000000001 6601 3301
N 1346.42 2.01365 81.0408 6602 3301
N 1446.2 36.6887 32.0326 6603 3302
N 1446.78 37.3043 32.7831 6604 3302
N 1406.52 145.488 25.8459 6605 3303
N 1407.56 145.704 26.1453 6606 3303
N 1431.62 67.2749 62.0689 6607 3304
N 1431.43 66.6973 61.1246 6608 3304
N 1408.82 138.42 9.33353 6609 3305
N 1408.2 137.804 8.64739 6610 3305
N 1391.34 100.522 92.1502 6611 3306
N 1390.32 100.628 92.6036 6612 3306
N 1580.41 122.155 7.20721 6613 3307
N 1579.88 121.181 7.28577 6614 3307
N 1438.75 82.1927 47.2208 6615 3308
N 1439.46 82.0384 48.0647 6616 3308
N 1407.58 90.12990000000001 70.8601 6617 3309
N 1408 89.5859 71.7461 6618 3309
N 1352.95 67.68980000000001 129.014 6619 3310
N 1353.11 67.6397 130.122 6620 3310
N 1952.38 47.6279 58.5983 6621 3311
N 1951.55 48.3509 58.4591 6622 3311
N 1497.8 45.4504 46.8746 6623 3312
N 1496.92 46.1366 46.9941 6624 3312
N 1411.88 136.694 7.29915 6625 3313
N 1412.88 137.178 7.36644 6626 3313
N 1358.01 143.477 76.16589999999999 6627 3314
N 1358.35 143.558 75.08280000000001 6628 3314
N 1368.99 132.084 104.43 6629 3315
N 1369.91 132.355 104.996 6630 3315
N 1538.68 28.2455 142.713 6631 3316
N 1538.76 28.0275 143.81 6632 3316
N 1350.2 140.588 71.4171 6633 3317
N 1349.18 140.682 71.8947 6634 3317
N 1766.42 147.513 21.6995 6635 3318
N 1765.8 146.675 22.0846 6636 3318
N 1356.32 99.569 40.9145 6637 3319
N 1356.88 99.1309 40.0427 6638 3319
N 1342.18 79.0047 38.6163 6639 3320
N 1342.18 79.8154 39.3772 6640 3320
N 1528.57 15.9578 29.5932 6641 3321
N 1529.08 15.111 30.1012 6642 3321
N 1581.6 83.2871 92.343 6643 3322
N 1581.76 83.49299999999999 91.254 6644 3322
N 1493.36 149.881 7.67772 6645 3323
N 1493.49 0.315676 6.65788 6646 3323
N 1624.44 53.7304 110.804 6647 3324
N 1623.92 54.7167 110.859 6648 3324
N 1352.62 14.6018 68.61960000000001 6649 3325
N 1352.32 14.0251 69.5257 6650 3325
N 1485.56 110.87 140.788 6651 3326
N 1485.38 111.427 139.835 6652 3326
N 1401.45 144.157 50.9677 6653 3327
N 1401.2 144.907 50.1815 6654 3327
N 1496.05 105.043 106.983 6655 3328
N 1496.87 105.761 106.73 6656 3328
N 1641.92 120.284 132.557 6657 3329
N 1642.78 119.554 132.542 6658 3329
N 1409.89 61.6987 25.1796 6659 3330
N 1410.91 61.3227 25.4878 6660 3330
N 1383.78 102.133 120.632 6661 3331
N 1384.81 102.024 121.06 6662 3331
N 1817.51 128.355 20.3062 6663 3332
N 1817.12 127.989 21.2877 6664 3332
N 1794.57 118.931 8.317909999999999 6665 3333
N 1795.49 119.53 8.070600000000001 6666 3333
N 1471.48 135.323 59.95 6667 3334
N 1472.51 135.549 59.5711 6668 3334
N 1402.99 132.147 65.7353 6669 3335
N 1402.42 132.121 64.7606 6670 3335
N 1538.78 84.83 134.59 6671 3336
N 1537.66 84.7959 134.479 6672 3336
N 1463.26 136.436 47.8158 6673 3337
N 1463.36 136.126 48.885 6674 3337
N 1510.13 71.1332 18.8704 6675 3338
N 1509.16 71.2439 18.3258 6676 3338
N 1438.68 138.91 126.463 6677 3339
N 1437.7 139.469 126.382 6678 3339
N 1424.31 2.34525 29.1553 6679 3340
N 1424.93 3.21355 28.7546 6680 3340
N 1573.85 43.6679 32.41 6681 3341
N 1573.88 43.3672 31.3413 6682 3341
N 1355.65 56.2079 123.017 6683 3342
N 1356.03 55.1462 122.865 6684 3342
N 1509.07 116.208 134.373 6685 3343
N 1509.31 115.461 135.162 6686 3343
N 1373.92 141.728 144.052 6687 3344
N 1374.52 141.083 143.373 6688 3344
N 1600.65 24.1103 53.4488 6689 3345
N 1600.95 25.0197 54.0427 6690 3345
N 1507.88 48.5389 125.435 6691 3346
N 1507.08 49.3304 125.372 6692 3346
N 1412.58 68.5651 122.959 6693 3347
N 1412.84 69.36750000000001 122.201 6694 3347
N 1455.78 52.2251 84.07250000000001 6695 3348
N 1455.3 52.9173 84.8126 6696 3348
N 1561.25 127.74 53.6163 6697 3349
N 1560.54 127.633 52.7409 6698 3349
N 1421.49 138.539 134.844 6699 3350
N 1421.88 139.419 134.279 6700 3350
N 1456.5 133.022 79.19240000000001 6701 3351
N 1457.04 132.137 78.79389999999999 6702 3351
N 1534.79 139.717 134.825 6703 3352
N 1535.51 138.918 134.542 6704 3352
N 1495.19 64.8108 45.1464 6705 3353
N 1496.31 64.69880000000001 45.1952 6706 3353
N 1351.72 97.57550000000001 20.0804 6707 3354
N 1352.35 98.2627 19.4338 6708 3354
N 1584.15 19.7327 25.6921 6709 3355
N 1583.6 20.6962 25.5551 6710 3355
N 1514.75 6.6686 134.16 6711 3356
N 1513.73 6.20723 134.073 6712 3356
N 1882.2 54.2683 32.8262 6713 3357
N 1883.21 54.1186 33.3374 6714 3357
N 1350.12 27.0607 129.814 6715 3358
N 1350.4 27.2209 130.887 6716 3358
N 1380.49 1.81362 78.7676 6717 3359
N 1381.57 2.07698 78.8009 6718 3359
N 1489.26 24.9592 22.8313 6719 3360
N 1489.79 24.7878 21.8487 6720 3360
N 1393.74 63.513 42.6794 6721 3361
N 1394.75 63.8783 42.3148 6722 3361
N 1521 116.478 35.656 6723 3362
N 1520.17 115.77 35.8501 6724 3362
N 1465.16 117.184 141.284 6725 3363
N 1465.33 116.486 140.411 6726 3363
N 1431.88 124.289 79.42870000000001 6727 3364
N 1432.7 123.543 79.5868 6728 3364
N 1496.78 132.894 146.167 6729 3365
N 1497.73 132.462 146.55 6730 3365
N 1426.77 79.8086 55.9885 6731 3366
N 1425.97 80.49460000000001 56.4015 6732 3366
N 1465.65 135.931 52.3709 6733 3367
N 1465.4 134.884 52.0702 6734 3367
N 1342.18 144.163 54.3035 6735 3368
N 1342.18 144.763 53.3486 6736 3368
N 1433.11 98.80410000000001 92.7145 6737 3369
N 1432.23 98.1738 92.9979 6738 3369
N 1497.69 111.848 50.699 6739 3370
N 1497.72 111.285 51.6542 6740 3370
N 1454.3 54.4334 12.3558 6741 3371
N 1453.86 54.6201 11.331 6742 3371
N 1419.24 71.6113 87.886 6743 3372
N 1419.07 72.6747 87.63930000000001 6744 3372
N 1696.46 142.495 12.8631 6745 3373
N 1696.49 141.488 13.3591 6746 3373
N 1445.2 125.245 48.4302 6747 3374
N 1444.4 124.973 47.6933 6748 3374
N 1433.96 147.644 33.4869 6749 3375
N 1434.06 147.107 34.4438 6750 3375
N 1441.72 12.231 135.793 6751 3376
N 1441.99 11.2107 136.181 6752 3376
N 1422.05 41.9385 0.498153 6753 3377
N 1422.28 40.8341 0.392265 6754 3377
N 1342.18 128.886 55.4309 6755 3378
N 1342.18 127.815 55.0698 6756 3378
N 1514.64 69.3668 124.172 6757 3379
N 1514.8 69.8573 125.156 6758 3379
N 1846.77 0.0651983 58.5495 6759 3380
N 1847.13 149.64 57.5705 6760 3380
N 1385.42 24.9235 39.6538 6761 3381
N 1385.34 23.84 39.3807 6762 3381
N 1357.43 135.837 64.7941 6763 3382
N 1357.78 135.037 65.4773 6764 3382
N 1501.38 68.5273 89.45269999999999 6765 3383
N 1501.86 69.2841 90.1362 6766 3383
N 1568.7 97.11799999999999 46.6325 6767 3384
N 1567.58 97.17570000000001 46.739 6768 3384
N 1450.36 82.6148 147.494 6769 3385
N 1449.57 81.8823 147.162 6770 3385
N 1395.97 142.708 124.228 6771 3386
N 1395.78 141.605 124.189 6772 3386
N 1655.44 34.3257 62.6705 6773 3387
N 1655.61 34.3011 61.5664 6774 3387
N 1676.09 63.1115 19.1265 6775 3388
N 1676.45 62.176 19.6385 6776 3388
N 1427.25 0.799693 81.27370000000001 6777 3389
N 1426.15 0.994154 81.14830000000001 6778 3389
N 1449.94 135.104 56.6401 6779 3390
N 1450.21 134.503 55.7291 6780 3390
N 1346.13 92.30070000000001 131.985 6781 3391
N 1345.17 91.74469999999999 131.796 6782 3391
N 1602.92 86.42270000000001 94.66240000000001 6783 3392
N 1603.83 85.8729 95.0292 6784 3392
N 1624.31 107.243 76.3069 6785 3393
N 1624.85 108.117 76.7193 6786 3393
N 1406.91 116.367 35.7685 6787 3394
N 1405.94 115.85 35.9661 6788 3394
N 1401.28 127.351 137.88 6789 3395
N 1402.29 127.315 138.362 6790 3395
N 1394.43 40.8429 110.259 6791 3396
N 1393.74 41.4792 110.867 6792 3396
N 1412.72 97.1819 6.30852 6793 3397
N 1412.71 96.8383 5.25151 6794 3397
N 1505.42 76.6426 95.6683 6795 3398
N 1505.95 77.6212 95.5095 6796 3398
N 1502.92 105.08 148.87 6797 3399
N 1503.24 104.72 149.871 6798 3399
N 1442.34 27.379 79.38420000000001 6799 3400
N 1441.74 28.3206 79.3571 6800 3400
N 1399.75 52.5436 100.806 6801 3401
N 1399.96 53.2084 99.9581 6802 3401
N 1426.26 43.614 110.973 6803 3402
N 1427.18 43.1042 111.335 6804 3402
N 1565.33 26.1331 89.3908 6805 3403
N 1564.55 26.9543 89.4203 6806 3403
N 1425.56 27.4557 80.45359999999999 6807 3404
N 1424.57 27.0945 80.8407 6808 3404
N 1391.19 130.841 29.5713 6809 3405
N 1390.45 130.255 28.9618 6810 3405
N 1510.78 107.268 44.4426 6811 3406
N 1509.96 108 44.658 6812 3406
N 1440.37 91.742 44.614 6813 3407
N 1441.24 92.2193 45.1497 6814 3407
N 1390.95 14.3521 138.851 6815 3408
N 1390.76 15.4104 138.543 6816 3408
N 1355.77 46.2404 84.62090000000001 6817 3409
N 1355.98 47.1936 84.06180000000001 6818 3409
N 1467.93 90.03830000000001 61.982 6819 3410
N 1466.84 90.2629 61.8192 6820 3410
N 1459.32 35.5271 27.2817 6821 3411
N 1459.01 36.1807 26.4362 6822 3411
N 1446.26 80.53579999999999 64.3387 6823 3412
N 1446.2 79.5211 64.7854 6824 3412
N 1592.18 12.2514 76.91289999999999 6825 3413
N 1591.74 13.2793 76.90260000000001 6826 3413
N 1550.36 95.0539 107.185 6827 3414
N 1550.72 95.8343 107.903 6828 3414
N 1519.36 46.6234 109.52 6829 3415
N 1518.29 46.7156 109.22 6830 3415
N 1368.94 132.713 135.056 6831 3416
N 1367.89 132.996 134.776 6832 3416
N 1356.28 12.2876 15.3894 6833 3417
N 1355.37 12.9128 15.2247 6834 3417
N 1404.58 84.9644 84.1015 6835 3418
N 1405.43 84.6395 83.4464 6836 3418
N 1342.18 86.437 99.6678 6837 3419
N 1342.18 85.5213 99.092 6838 3419
N 1517.3 121.205 141.102 6839 3420
N 1516.92 120.167 140.917 6840 3420
N 1671.32 115.506 95.7132 6841 3421
N 1670.83 116.353 96.26260000000001 6842 3421
N 1445.87 47.7015 121.926 6843 3422
N 1444.84 47.2796 121.705 6844 3422
N 1428.74 36.227 84.6254 6845 3423
N 1427.87 36.2748 83.9327 6846 3423
N 1418.37 61.165 67.24079999999999 6847 3424
N 1418.99 61.756 66.53740000000001 6848 3424
N 1353.85 28.5318 85.6712 6849 3425
N 1352.95 29.0541 86.093 6850 3425
N 1376.01 75.2413 95.2436 6851 3426
N 1375.54 76.1734 94.9049 6852 3426
N 1375.53 52.5857 122.53 6853 3427
N 1375.76 53.6846 122.415 6854 3427
N 1452.97 89.06489999999999 46.7321 6855 3428
N 1454.07 89.2564 46.6573 6856 3428
N 1364 6.34686 22.5387 6857 3429
N 1363.53 5.45468 23.0431 6858 3429
N 1342.18 89.68429999999999 99.69670000000001 6859 3430
N 1342.18 89.8539 100.761 6860 3430
N 1857.16 142.102 49.7043 6861 3431
N 1858.27 142.121 49.5807 6862 3431
N 1505.37 69.3596 125.632 6863 3432
N 1506.11 69.1464 126.449 6864 3432
N 1347.2 37.1757 128.45 6865 3433
N 1348.16 36.6279 128.667 6866 3433
N 1457.83 1.10979 109.292 6867 3434
N 1458.02 0.0592107 108.929 6868 3434
N 1739.15 35.5456 134.422 6869 3435
N 1738.04 35.5277 134.298 6870 3435
N 1433.73 110.231 27.6392 6871 3436
N 1434.05 109.248 28.0834 6872 3436
N 1976.75 113.503 142.632 6873 3437
N 1976.97 112.902 143.549 6874 3437
N 1465.55 90.0904 48.6052 6875 3438
N 1466.59 89.7512 48.6369 6876 3438
N 1361.13 23.788 102.109 6877 3439
N 1361.28 22.8697 101.491 6878 3439
N 1405.07 31.7843 38.9131 6879 3440
N 1404.85 30.8687 38.2997 6880 3440
N 1592.13 128.406 58.1409 6881 3441
N 1592.77 127.495 57.9387 6882 3441
N 1531.69 7.37864 35.6401 6883 3442
N 1532.58 7.29318 36.3212 6884 3442
N 1538.99 56.9081 137.798 6885 3443
N 1538.23 57.6857 137.546 6886 3443
N 1363.56 138.587 29.4881 6887 3444
N 1362.99 139.557 29.3736 6888 3444
N 1460.56 133.424 107.324 6889 3445
N 1460.37 134.533 107.47 6890 3445
N 1374.86 63.8841 54.0646 6891 3446
N 1373.94 63.2728 54.039 6892 3446
N 1645.24 101.988 43.8589 6893 3447
N 1644.18 102.252 43.6293 6894 3447
N 1565.53 25.939 100.292 6895 3448
N 1564.79 26.1478 101.109 6896 3448
N 1596.54 98.8767 60.5365 6897 3449
N 1595.64 99.03700000000001 61.1878 6898 3449
N 1393.14 76.0792 144.244 6899 3450
N 1393.23 76.23309999999999 143.136 6900 3450
N 1543.72 75.2838 97.4927 6901 3451
N 1543.91 76.1093 98.2259 6902 3451
N 1468.03 58.9485 20.1485 6903 3452
N 1468.96 58.4517 19.7374 6904 3452
N 1383.2 61.6377 109.861 6905 3453
N 1383.74 60.7923 110.37 6906 3453
N 1420.82 71.2597 136.932 6907 3454
N 1420.91 72.2345 137.466 6908 3454
N 1478.91 105.545 137.914 6909 3455
N 1479.58 105.944 137.123 6910 3455
N 1355.98 46.2931 128.701 6911 3456
N 1355.85 47.0297 127.864 6912 3456
N 1503.58 74.911 118.095 6913 3457
N 1502.57 75.3626 118.297 6914 3457
N 1449.41 101.648 45.4302 6915 3458
N 1449.37 100.542 45.3022 6916 3458
N 1560.34 43.445 107.341 6917 3459
N 1561.35 43.8782 107.136 6918 3459
N 1448.54 67.3098 23.6775 6919 3460
N 1448.97 66.6054 22.9312 6920 3460
N 1448.88 7.43801 91.6863 6921 3461
N 1449.11 7.99645 90.7431 6922 3461
N 1409.58 142.893 123.46 6923 3462
N 1408.59 142.414 123.565 6924 3462
N 1483.39 6.69808 17.0299 6925 3463
N 1484.24 7.3339 16.692 6926 3463
N 1546.65 105.177 117.393 6927 3464
N 1545.73 104.896 117.97 6928 3464
N 1362.53 36.4523 82.2099 6929 3465
N 1361.83 36.0423 82.98439999999999 6930 3465
N 1602.37 108.339 98.7093 6931 3466
N 1601.36 107.969 98.3571 6932 3466
N 1354.98 94.1009 109.06 6933 3467
N 1354.23 93.95959999999999 108.239 6934 3467
N 1534.36 81.0779 129.27 6935 3468
N 1534.52 80.83199999999999 128.192 6936 3468
N 1456.28 100.744 3.79952 6937 3469
N 1455.73 100.017 3.14375 6938 3469
N 1359.07 100.981 116.371 6939 3470
N 1359.81 101.628 116.9 6940 3470
N 1375.7 137.216 96.21599999999999 6941 3471
N 1376.39 136.498 96.7302 6942 3471
N 1400.34 67.6096 78.87050000000001 6943 3472
N 1399.85 66.617 78.6936 6944 3472
N 1469.46 79.416 62.553 6945 3473
N 1468.36 79.6005 62.6896 6946 3473
N 1434.81 44.1104 3.77681 6947 3474
N 1435.88 43.8621 3.9448 6948 3474
N 1465.73 95.1636 139.483 6949 3475
N 1466.78 94.89619999999999 139.719 6950 3475
N 1423.1 57.7938 95.907 6951 3476
N 1423.83 56.9435 95.8381 6952 3476
N 1693.91 123.448 20.9239 6953 3477
N 1693.59 122.581 20.3002 6954 3477
N 1479.47 44.2027 48.2547 6955 3478
N 1479.44 45.1544 47.6672 6956 3478
N 1608.44 63.4167 123.135 6957 3479
N 1608.82 63.6064 122.097 6958 3479
N 1494.22 125.144 119.325 6959 3480
N 1494.37 125.971 118.577 6960 3480
N 1550.2 66.52849999999999 101.72 6961 3481
N 1550.73 66.1622 100.802 6962 3481
N 1367.32 5.74582 60.8734 6963 3482
N 1366.48 6.38789 61.1997 6964 3482
N 1698.39 12.7399 23.9975 6965 3483
N 1697.47 13.1329 24.5077 6966 3483
N 1821 118.004 80.53100000000001 6967 3484
N 1822.1 118.211 80.5595 6968 3484
N 1503.53 146.125 54.4976 6969 3485
N 1504.35 146.888 54.4791 6970 3485
N 1523.54 114.099 97.2706 6971 3486
N 1524.63 113.874 97.0911 6972 3486
N 1558.28 114.779 44.4991 6973 3487
N 1557.87 114.555 45.5085 6974 3487
N 1665.13 76.1463 23.5815 6975 3488
N 1664.76 77.10769999999999 23.9909 6976 3488
N 1588.5 57.089 134.461 6977 3489
N 1588.6 58.1362 134.052 6978 3489
N 1690.28 125.026 103.326 6979 3490
N 1689.32 125.594 103.307 6980 3490
N 1413.6 67.6088 23.0069 6981 3491
N 1414.12 67.3047 22.067 6982 3491
N 1449.29 78.73139999999999 78.93510000000001 6983 3492
N 1449.75 77.82810000000001 78.4496 6984 3492
N 1541.42 149.205 119.01 6985 3493
N 1541 148.727 119.937 6986 3493
N 1536.27 46.0618 62.0021 6987 3494
N 1535.5 45.6355 61.2998 6988 3494
N 1378.97 58.112 25.7264 6989 3495
N 1379.02 57.707 24.689 6990 3495
N 1364.11 76.6883 16.1065 6991 3496
N 1363.42 75.95 16.6011 6992 3496
N 1446.34 141.589 26.7942 6993 3497
N 1446.65 141.848 25.7435 6994 3497
N 1376.81 109.16 43.4611 6995 3498
N 1376.05 108.341 43.4998 6996 3498
N 1413.17 15.9416 127.001 6997 3499
N 1412.87 16.6224 126.139 6998 3499
N 1570.6 93.2522 115.541 6999 3500
N 1571.62 92.84220000000001 115.325 7000 3500
N 1445.77 34.5362 105.485 7001 3501
N 1445.7 35.0591 104.506 7002 3501
N 1393.84 107.466 120.023 7003 3502
N 1393.03 107.015 120.634 7004 3502
N 1473.76 71.7033 84.6465 7005 3503
N 1473.12 70.7769 84.6313 7006 3503
N 1400.3 54.1852 10.426 7007 3504
N 1399.93 54.766 11.3183 7008 3504
N 1602.27 28.7479 81.0377 7009 3505
N 1602.09 28.0682 81.91030000000001 7010 3505
N 1426.04 132.448 132.113 7011 3506
N 1426.67 132.543 131.183 7012 3506
N 1487.71 80.05249999999999 93.6914 7013 3507
N 1486.71 79.5634 93.4892 7014 3507
N 1405.4 140.937 135.331 7015 3508
N 1406.15 141.47 135.966 7016 3508
N 1386.86 116.139 16.0113 7017 3509
N 1386.72 115.104 15.6402 7018 3509
N 1399.04 85.29130000000001 51.153 7019 3510
N 1398.43 84.9093 50.2952 7020 3510
N 1582.22 57.7791 146.339 7021 3511
N 1582.48 58.1933 147.338 7022 3511
N 1406.62 56.1693 80.3471 7023 3512
N 1407.1 56.0807 81.3623 7024 3512
N 1419.1 137.338 107.348 7025 3513
N 1419.55 137.887 106.471 7026 3513
N 1456.46 35.5195 64.85080000000001 7027 3514
N 1455.49 34.9507 64.9105 7028 3514
N 1540.26 129.461 128.418 7029 3515
N 1540.58 129.111 129.419 7030 3515
N 1371.48 118.638 105.91 7031 3516
N 1370.72 119.209 105.314 7032 3516
N 1365.78 31.4458 60.6225 7033 3517
N 1364.72 31.1158 60.7354 7034 3517
N 1430.28 15.5268 17.9871 7035 3518
N 1430.73 14.5567 18.3361 7036 3518
N 1469.87 136.965 95.91240000000001 7037 3519
N 1469.58 136.73 94.8582 7038 3519
N 1600.2 35.0109 86.5198 7039 3520
N 1600.53 34.3583 87.3707 7040 3520
N 1478.66 39.9731 107.199 7041 3521
N 1477.73 40.5951 107.301 7042 3521
N 1440.13 147.642 45.3799 7043 3522
N 1440.07 147.404 44.2825 7044 3522
N 1537.69 67.583 135.71 7045 3523
N 1537.54 66.8036 134.929 7046 3523
N 1456.03 94.569 125.289 7047 3524
N 1456.07 94.58839999999999 126.422 7048 3524
N 1553.21 86.6896 29.9638 7049 3525
N 1553.96 87.2069 30.5987 7050 3525
N 1440.89 123.569 144.203 7051 3526
N 1440.52 122.511 144.105 7052 3526
N 1403.8 89.8609 37.3018 7053 3527
N 1404.53 89.3227 36.6392 7054 3527
N 1562.28 149.241 41.1775 7055 3528
N 1562.48 0.111917 40.4702 7056 3528
N 1411.29 1.78289 59.7732 7057 3529
N 1412.37 1.83921 60.0367 7058 3529
N 1585.99 66.64709999999999 80.1164 7059 3530
N 1586.36 65.97150000000001 80.9342 7060 3530
N 1419.1 62.8793 6.35366 7061 3531
N 1419.73 63.6455 5.84704 7062 3531
N 1562.56 20.2965 73.9731 7063 3532
N 1562.87 21.3387 74.253 7064 3532
N 1413.33 97.2697 63.0141 7065 3533
N 1414.2 96.8411 62.4624 7066 3533
N 1463.15 3.64911 13.0082 7067 3534
N 1463.05 3.81226 11.903 7068 3534
N 1595.46 28.2775 66.7067 7069 3535
N 1596.18 27.4977 66.3259 7070 3535
N 1458.78 106.603 58.2587 7071 3536
N 1458.56 105.768 58.979 7072 3536
N 2053.15 20.7635 60.8202 7073 3537
N 2052.65 21.6973 61.1732 7074 3537
N 1867.46 137.536 91.8764 7075 3538
N 1867.03 136.772 91.1648 7076 3538
N 1397.86 11.2085 71.8822 7077 3539
N 1397.97 11.3654 72.9579 7078 3539
N 1559.35 49.779 94.06780000000001 7079 3540
N 1559.8 49.4506 93.111 7080 3540
N 1500.79 129.028 103.175 7081 3541
N 1500.34 129.867 103.781 7082 3541
N 1717.95 46.2282 90.35039999999999 7083 3542
N 1719.07 46.1888 90.2157 7084 3542
N 1418.06 146.905 7.81468 7085 3543
N 1417.66 145.954 7.3836 7086 3543
N 1576.77 50.3799 74.8049 7087 3544
N 1576.95 49.5684 74.0761 7088 3544
N 1472.25 129.212 66.45010000000001 7089 3545
N 1471.65 130.139 66.6337 7090 3545
N 1448.7 55.3668 124.498 7091 3546
N 1448.95 56.1213 125.287 7092 3546
N 1465.64 59.4808 113.763 7093 3547
N 1465.62 60.2215 114.604 7094 3547
N 1553.15 14.7667 41.9462 7095 3548
N 1554.14 15.0353 42.4112 7096 3548
N 1408.66 117.524 106.666 7097 3549
N 1409.44 118.304 106.444 7098 3549
N 1497.55 4.15552 22.8014 7099 3550
N 1497.18 3.7339 21.8398 7100 3550
N 1476.64 102.823 43.6422 7101 3551
N 1476.39 103.293 44.6288 7102 3551
N 1358.61 133.693 127.927 7103 3552
N 1358.72 133.597 129.038 7104 3552
N 1378.4 40.4574 58.9769 7105 3553
N 1379.29 40.0955 58.3703 7106 3553
N 2064.37 32.4567 0.169291 7107 3554
N 2064.38 32.0477 149.143 7108 3554
N 1542.04 115.199 54.1633 7109 3555
N 1542.26 115.393 55.2471 7110 3555
N 1411.28 130.531 123.503 7111 3556
N 1411.56 129.534 123.083 7112 3556
N 1593.29 23.3603 127.16 7113 3557
N 1592.37 22.8113 126.833 7114 3557
N 1399.35 84.17310000000001 93.0779 7115 3558
N 1398.3 84.2998 92.75369999999999 7116 3558
N 1361.49 60.9602 86.0376 7117 3559
N 1360.67 61.7216 86.2666 7118 3559
N 1485.25 142.662 6.64646 7119 3560
N 1486.06 143.326 7.04084 7120 3560
N 1419.45 25.8727 15.5185 7121 3561
N 1420.2 26.1566 16.2956 7122 3561
N 1580.51 17.1704 81.7884 7123 3562
N 1580.13 18.1539 81.4006 7124 3562
N 1344.89 53.0016 61.2355 7125 3563
N 1345.61 52.1628 61.3546 7126 3563
N 1616.97 127.404 16.4017 7127 3564
N 1617.54 126.567 15.9203 7128 3564
N 1454.3 72.9671 48.9439 7129 3565
N 1454.23 74.0188 48.5495 7130 3565
N 1521.48 111.043 147.852 7131 3566
N 1522.38 110.465 148.185 7132 3566
N 1360.46 113.321 115.186 7133 3567
N 1360.01 112.301 115.236 7134 3567
N 1547.78 127.181 19.4492 7135 3568
N 1547.23 128.028 19.9136 7136 3568
N 1599.75 23.1283 74.3451 7137 3569
N 1599.38 23.8785 73.5945 7138 3569
N 1893.7 46.0693 58.3473 7139 3570
N 1894.05 46.2628 59.3898 7140 3570
N 1409.41 65.1156 44.363 7141 3571
N 1408.4 65.5087 44.7009 7142 3571
N 1397.5 136.907 72.7366 7143 3572
N 1397.24 136.037 73.4141 7144 3572
N 1447.76 67.5539 94.024 7145 3573
N 1446.99 68.28360000000001 94.3921 7146 3573
N 1508.3 98.7871 19.1213 7147 3574
N 1507.61 98.3583 19.9035 7148 3574
N 1556.02 143.862 100.006 7149 3575
N 1555.38 143.514 100.859 7150 3575
N 1521.37 105.967 66.369 7151 3576
N 1521.66 105.248 65.5587 7152 3576
N 1445.59 69.4194 145.555 7153 3577
N 1445.54 70.5137 145.397 7154 3577
N 1511.5 104.865 12.5037 7155 3578
N 1511.08 105.017 11.474 7156 3578
N 1494.71 3.96532 123.337 7157 3579
N 1494.89 5.0164 122.994 7158 3579
N 1770.18 55.9175 89.79519999999999 7159 3580
N 1769.88 56.9946 89.7854 7160 3580
N 1407.21 54.2215 125.591 7161 3581
N 1406.45 54.2991 124.78 7162 3581
N 1603.56 111.342 94.2647 7163 3582
N 1604.49 110.887 94.6617 7164 3582
N 1727.84 27.1066 121.366 7165 3583
N 1728.23 27.9354 122.031 7166 3583
N 1437.66 10.7371 40.1204 7167 3584
N 1437.98 10.5871 39.0605 7168 3584
N 1823.69 117.247 13.6476 7169 3585
N 1823.97 116.159 13.7326 7170 3585
N 1415.15 18.8557 47.6956 7171 3586
N 1415.07 17.7634 47.4957 7172 3586
N 1424.09 33.9681 106.259 7173 3587
N 1423.22 33.2379 106.3 7174 3587
N 1576.66 132.794 60.1587 7175 3588
N 1575.76 132.368 59.6539 7176 3588
N 1357.79 99.1266 147.848 7177 3589
N 1357.69 98.25539999999999 147.15 7178 3589
N 1439.72 114.404 15.718 7179 3590
N 1438.94 113.993 16.4092 7180 3590
N 1385.02 4.76489 7.56235 7181 3591
N 1384.97 5.46736 6.71363 7182 3591
N 1680.31 29.3062 109.432 7183 3592
N 1679.27 29.6942 109.535 7184 3592
N 1489.42 63.127 124.695 7185 3593
N 1489.39 62.0281 124.474 7186 3593
N 1442.52 49.4228 144.208 7187 3594
N 1441.61 48.7899 144.218 7188 3594
N 1426.51 94.22 52.1781 7189 3595
N 1426.78 95.3129 52.1723 7190 3595
N 1635.58 141.203 28.6222 7191 3596
N 1635.92 141.059 29.6795 7192 3596
N 1797.31 146.626 127.703 7193 3597
N 1797.37 145.877 128.539 7194 3597
N 1963.4 118.644 51.5023 7195 3598
N 1963.9 117.994 52.2606 7196 3598
N 1529.6 1.29501 131.352 7197 3599
N 1529.37 1.69097 132.367 7198 3599
N 1630.92 84.0391 93.42010000000001 7199 3600
N 1631.48 84.4335 94.3141 7200 3600
N 1983.1 38.1363 114.759 7201 3601
N 1983.37 38.9999 114.11 7202 3601
N 1431.48 122.78 93.96639999999999 7203 3602
N 1432.31 123.511 93.996 7204 3602
N 1380.88 63.1722 24.5299 7205 3603
N 1379.84 62.7987 24.7431 7206 3603
N 1351.69 111.153 137.506 7207 3604
N 1351.42 110.563 136.613 7208 3604
N 1731.17 120.135 110.834 7209 3605
N 1731.01 120.308 109.748 7210 3605
N 1445.06 62.2205 43.9804 7211 3606
N 1445.68 62.0229 43.0781 7212 3606
N 1488.3 30.9171 0.394914 7213 3607
N 1487.54 31.1241 1.19069 7214 3607
N 1613.78 101.181 4.03042 7215 3608
N 1613.06 100.464 4.51657 7216 3608
N 1535.16 99.3416 114.714 7217 3609
N 1534.97 100.085 113.891 7218 3609
N 1379.37 113.71 2.19812 7219 3610
N 1378.58 113.548 2.97844 7220 3610
N 1598.8 125.603 30.5071 7221 3611
N 1598.2 124.795 31.005 7222 3611
N 1403.72 17.8089 51.9813 7223 3612
N 1404.34 17.4757 51.1139 7224 3612
N 1602.53 134.864 34.2822 7225 3613
N 1602.73 135.17 35.3477 7226 3613
N 1347.44 84.77509999999999 135.154 7227 3614
N 1346.74 84.666 134.273 7228 3614
N 1404.22 10.2273 9.196099999999999 7229 3615
N 1405.21 10.5247 9.69783 7230 3615
N 1455.99 110.366 124.888 7231 3616
N 1454.97 110.167 124.496 7232 3616
N 1459.74 46.0213 57.4829 7233 3617
N 1459.93 44.9152 57.3594 7234 3617
N 1452.77 105.629 122.282 7235 3618
N 1453.68 106.267 122.279 7236 3618
N 1594.74 15.7526 14.3679 7237 3619
N 1593.76 15.3292 14.7636 7238 3619
N 1451.71 52.2262 104.41 7239 3620
N 1450.67 52.5316 104.649 7240 3620
N 1552.36 59.0194 74.49630000000001 7241 3621
N 1552.25 58.6778 75.53360000000001 7242 3621
N 1515.53 53.7703 121.261 7243 3622
N 1514.49 53.3846 121.092 7244 3622
N 1958.43 93.8732 81.60639999999999 7245 3623
N 1958.05 92.8219 81.6973 7246 3623
N 1487.68 48.3893 24.1617 7247 3624
N 1486.68 48.5948 23.6943 7248 3624
N 1405.19 42.8304 42.8398 7249 3625
N 1406.31 42.7654 42.8887 7250 3625
N 1369.73 138.47 36.6849 7251 3626
N 1369.63 137.329 36.7252 7252 3626
N 1504.57 34.5582 63.6362 7253 3627
N 1505.15 33.6183 63.5637 7254 3627
N 1525.78 90.2007 54.3028 7255 3628
N 1525.52 89.8378 55.3338 7256 3628
N 1472.06 55.7145 23.4664 7257 3629
N 1472.74 54.8684 23.2085 7258 3629
N 1422.08 146.646 87.3984 7259 3630
N 1421.67 146.54 88.43040000000001 7260 3630
N 1425.36 19.8193 74.2372 7261 3631
N 1425.13 20.9063 74.1708 7262 3631
N 1584.15 59.5096 20.1201 7263 3632
N 1584.31 60.395 19.4368 7264 3632
N 1614.64 70.06780000000001 23.0191 7265 3633
N 1613.52 69.9631 23.0436 7266 3633
N 1622.42 94.8274 114.304 7267 3634
N 1623.18 94.3047 114.937 7268 3634
N 1528.88 68.3158 131.712 7269 3635
N 1529.78 68.23309999999999 131.047 7270 3635
N 1542.22 80.77800000000001 65.47790000000001 7271 3636
N 1543.01 81.5596 65.36199999999999 7272 3636
N 1512.99 8.71419 18.3554 7273 3637
N 1511.97 8.89194 17.9171 7274 3637
N 1539.74 39.4521 69.5274 7275 3638
N 1538.65 39.2621 69.3768 7276 3638
N 1477.02 114.032 19.3678 7277 3639
N 1476.4 114.376 20.23 7278 3639
N 1532.64 19.1734 62.4665 7279 3640
N 1532.58 18.1386 62.0355 7280 3640
N 1458.41 93.0209 69.0202 7281 3641
N 1459.49 92.84650000000001 68.81780000000001 7282 3641
N 1640.46 141.071 108.26 7283 3642
N 1640.81 142.109 108.452 7284 3642
N 1405.19 31.2345 66.2593 7285 3643
N 1406.13 31.2738 66.90179999999999 7286 3643
N 1497.13 61.1854 27.8922 7287 3644
N 1496.61 60.2019 28.0465 7288 3644
N 1537.76 43.4055 64.55370000000001 7289 3645
N 1536.79 42.908 64.2388 7290 3645
N 1562.45 124.566 88.3078 7291 3646
N 1562.41 125.506 88.9473 7292 3646
N 1378.07 96.46120000000001 92.4014 7293 3647
N 1377 96.0753 92.3788 7294 3647
N 1796.23 48.4469 11.9098 7295 3648
N 1795.86 49.3823 11.4124 7296 3648
N 1472.9 82.65219999999999 102.053 7297 3649
N 1473.91 82.3417 101.677 7298 3649
N 1552.84 78.80540000000001 113.06 7299 3650
N 1553.24 79.8165 113.338 7300 3650
N 1563.99 22.5144 134.327 7301 3651
N 1563.18 21.7765 134.511 7302 3651
N 1370.82 134.514 145.524 7303 3652
N 1371.71 134.573 144.834 7304 3652
N 1406.83 136.176 82.2089 7305 3653
N 1407.21 135.239 82.70650000000001 7306 3653
N 1409.75 19.9251 23.2816 7307 3654
N 1410.38 19.3356 22.6127 7308 3654
N 1346.81 103.045 68.76519999999999 7309 3655
N 1346.44 104.073 69.0235 7310 3655
N 1373.91 10.0973 139.637 7311 3656
N 1373.76 9.670529999999999 138.607 7312 3656
N 1436.24 110.586 84.50409999999999 7313 3657
N 1436.8 109.854 85.11190000000001 7314 3657
N 1634.52 38.2121 79.7834 7315 3658
N 1634.4 38.0278 80.8836 7316 3658
N 1611.7 42.5062 75.74590000000001 7317 3659
N 1611.38 43.3143 75.0446 7318 3659
N 1606.75 129.095 51.8034 7319 3660
N 1606.57 129.82 52.6275 7320 3660
N 1733.09 77.7189 116.883 7321 3661
N 1733.53 78.7479 116.969 7322 3661
N 1470.53 101.739 1.31293 7323 3662
N 1471.31 102.432 0.910924 7324 3662
N 1723.41 120.34 141.958 7325 3663
N 1723.94 119.637 141.275 7326 3663
N 1580.15 93.7689 114.172 7327 3664
N 1580.74 93.4127 115.059 7328 3664
N 1352.07 10.9351 110.473 7329 3665
N 1352.52 11.9114 110.709 7330 3665
N 1534.7 70.51009999999999 98.36839999999999 7331 3666
N 1534.73 69.7055 99.1527 7332 3666
N 1563.11 61.3521 61.1953 7333 3667
N 1563.96 60.9193 60.6234 7334 3667
N 1362.94 107.076 45.541 7335 3668
N 1363.63 107.655 46.2178 7336 3668
N 1572.43 114.586 148.842 7337 3669
N 1573.08 113.733 148.507 7338 3669
N 1481.69 68.8459 36.7691 7339 3670
N 1480.69 68.4392 37.0625 7340 3670
N 1615.67 88.8531 129.415 7341 3671
N 1614.63 88.6224 129.741 7342 3671
N 1569 50.9128 93.657 7343 3672
N 1569.66 51.2635 92.8279 7344 3672
N 1521.94 145.456 46.801 7345 3673
N 1521.2 144.97 47.493 7346 3673
N 1670.43 20.1418 90.80500000000001 7347 3674
N 1670.76 20.037 91.876 7348 3674
N 1460.35 71.9499 74.1576 7349 3675
N 1461.38 71.83669999999999 73.7471 7350 3675
N 1475.66 72.2223 101.442 7351 3676
N 1476.61 72.69759999999999 101.799 7352 3676
N 1616.95 125.613 56.536 7353 3677
N 1616.08 126.016 55.9665 7354 3677
N 1679.52 119.365 96.0596 7355 3678
N 1680.09 118.429 95.90949999999999 7356 3678
N 1459.25 67.3669 106.444 7357 3679
N 1460.2 66.74120000000001 106.378 7358 3679
N 1632.96 92.24339999999999 93.4234 7359 3680
N 1632.37 91.52330000000001 94.0364 7360 3680
N 1567.97 109.223 26.8089 7361 3681
N 1567.92 109.516 27.895 7362 3681
N 1801.44 107.894 122.163 7363 3682
N 1802.11 108.693 122.556 7364 3682
N 1544.98 18.4859 107.737 7365 3683
N 1544.41 18.4042 108.696 7366 3683
N 1645.6 111.131 64.1275 7367 3684
N 1646.55 110.513 64.20610000000001 7368 3684
N 1496.32 42.0059 6.15331 7369 3685
N 1496.65 42.4342 5.17378 7370 3685
N 1811.47 100.056 104.217 7371 3686
N 1811.16 98.9867 104.095 7372 3686
N 1457.64 40.5045 80.1978 7373 3687
N 1458.49 41.1265 79.8252 7374 3687
N 1677.27 121.18 93.47410000000001 7375 3688
N 1677 121.395 92.4134 7376 3688
N 1458.75 71.3005 81.87139999999999 7377 3689
N 1458.7 70.8308 80.8776 7378 3689
N 1657.27 107.881 36.2045 7379 3690
N 1656.99 108.065 35.1418 7380 3690
N 1540.28 56.8086 100.45 7381 3691
N 1540.05 57.8235 100.027 7382 3691
N 1696.99 68.6153 149.677 7383 3692
N 1696.54 69.59950000000001 149.965 7384 3692
N 1641.49 45.2574 99.3766 7385 3693
N 1641.86 44.4025 98.75709999999999 7386 3693
N 1517.7 42.0078 66.232 7387 3694
N 1517.63 42.5766 65.27670000000001 7388 3694
N 1519.49 55.4589 90.3189 7389 3695
N 1519.72 55.4186 89.21980000000001 7390 3695
N 1506.54 55.8273 122.641 7391 3696
N 1506.56 56.8509 123.09 7392 3696
N 1500.21 48.1382 73.0462 7393 3697
N 1499.34 47.5555 72.6468 7394 3697
N 1523.71 31.3224 142.421 7395 3698
N 1524.4 31.142 143.292 7396 3698
N 1624.3 123.132 124.163 7397 3699
N 1624 122.511 125.048 7398 3699
N 1586.57 33.7121 19.4733 7399 3700
N 1586.81 34.7706 19.2321 7400 3700
N 1445.06 109.118 47.1215 7401 3701
N 1444.38 109.066 46.2356 7402 3701
N 1384.22 109.804 135.579 7403 3702
N 1384.47 110.228 136.597 7404 3702
N 1499.45 16.4153 129.834 7405 3703
N 1500.19 16.4061 130.678 7406 3703
N 1391.72 104.557 55.2064 7407 3704
N 1391.7 104.824 54.1293 7408 3704
N 1410.62 41.8854 109.495 7409 3705
N 1410.21 42.6865 108.829 7410 3705
N 1492.62 79.2289 101.805 7411 3706
N 1493.1 78.2816 101.405 7412 3706
N 1631.33 138.271 125.414 7413 3707
N 1631.86 137.317 125.602 7414 3707
N 1549.32 72.87350000000001 143.275 7415 3708
N 1548.51 72.6618 142.534 7416 3708
N 1558.69 109.784 92.22069999999999 7417 3709
N 1558.79 110.889 92.3314 7418 3709
N 1492.01 116.982 52.3568 7419 3710
N 1491.73 117.777 51.6221 7420 3710
N 1499.64 113.512 38.9068 7421 3711
N 1500.76 113.472 39.0181 7422 3711
N 1594.64 47.2218 67.8794 7423 3712
N 1595.03 46.4005 67.2217 7424 3712
N 1568.19 83.21810000000001 105.909 7425 3713
N 1569.22 83.6647 105.827 7426 3713
N 1349.85 133.987 56.0286 7427 3714
N 1349.2 134.851 56.3558 7428 3714
N 1776.83 7.09574 64.13339999999999 7429 3715
N 1776.14 7.68169 64.7762 7430 3715
N 1462.81 17.9616 123.993 7431 3716
N 1462.86 16.8439 124.047 7432 3716
N 1623.32 48.3764 20.3087 7433 3717
N 1623.92 49.3143 20.2482 7434 3717
N 1518.72 109.962 34.5027 7435 3718
N 1518.02 109.735 35.3429 7436 3718
N 1380.17 30.5974 101.921 7437 3719
N 1380.83 30.2389 101.093 7438 3719
N 1401.61 50.0178 13.8494 7439 3720
N 1401.64 50.0917 12.7373 7440 3720
N 1545.59 57.3984 46.7532 7441 3721
N 1544.69 57.8061 47.2864 7442 3721
N 1715.41 98.38339999999999 10.3959 7443 3722
N 1714.77 98.5162 9.49372 7444 3722
N 1452.09 57.1012 44.4532 7445 3723
N 1452.94 57.1183 43.7176 7446 3723
N 1441.6 75.19750000000001 131.54 7447 3724
N 1441.07 75.7672 130.736 7448 3724
N 1342.18 32.5611 111.155 7449 3725
N 1342.18 33.5898 111.622 7450 3725
N 1698.21 144.29 108.096 7451 3726
N 1697.89 143.934 107.095 7452 3726
N 1877.31 118.34 92.70269999999999 7453 3727
N 1876.48 117.708 93.0866 7454 3727
N 1573.83 127.369 79.27119999999999 7455 3728
N 1574.83 127.511 79.7568 7456 3728
N 1387.03 91.7029 31.3168 7457 3729
N 1386.45 91.97790000000001 32.2288 7458 3729
N 1476.99 132.289 149.552 7459 3730
N 1477.14 132.055 0.635857 7460 3730
N 1691.09 125.78 117.332 7461 3731
N 1692.07 125.945 116.806 7462 3731
N 1569.24 98.4171 37.1387 7463 3732
N 1568.52 97.57170000000001 36.9036 7464 3732
N 1349.5 139.248 60.275 7465 3733
N 1349.99 140.258 60.2555 7466 3733
N 1534.52 89.7803 104.473 7467 3734
N 1533.89 89.81529999999999 103.543 7468 3734
N 1359.37 19.9167 42.4707 7469 3735
N 1359.41 19.7486 41.3616 7470 3735
N 1559.39 35.0095 38.3437 7471 3736
N 1559.17 33.9384 38.096 7472 3736
N 1368.45 117.89 24.4695 7473 3737
N 1368.28 116.856 24.0732 7474 3737
N 1540.53 82.2106 53.8781 7475 3738
N 1541.54 81.7152 53.8752 7476 3738
N 1379.58 19.407 5.76153 7477 3739
N 1379.71 18.3239 6.0372 7478 3739
N 1445.82 28.868 91.0348 7479 3740
N 1445.81 29.6144 90.20350000000001 7480 3740
N 1496.28 14.7765 67.9738 7481 3741
N 1496.86 14.9672 67.0368 7482 3741
N 1508.31 118.882 90.26349999999999 7483 3742
N 1508.54 119.694 90.9995 7484 3742
N 1454.29 40.502 55.3884 7485 3743
N 1454.8 40.264 56.3693 7486 3743
N 1739.45 100.482 90.7578 7487 3744
N 1739.4 100.168 89.67570000000001 7488 3744
N 1471.01 142.958 146.412 7489 3745
N 1471.76 142.324 146.957 7490 3745
N 1593.56 62.7137 83.60299999999999 7491 3746
N 1594.55 62.2686 83.8494 7492 3746
N 1561.53 23.9346 11.6397 7493 3747
N 1560.72 23.5281 12.2919 7494 3747
N 1408.46 20.2849 62.9251 7495 3748
N 1407.7 20.4443 62.1302 7496 3748
N 1674.3 63.7017 81.9581 7497 3749
N 1673.93 63.011 81.1777 7498 3749
N 1514.22 87.1529 64.09910000000001 7499 3750
N 1515.01 87.32769999999999 64.8843 7500 3750
N 1607.38 26.4629 27.9668 7501 3751
N 1606.7 26.7137 27.119 7502 3751
N 1392.25 84.7071 124.924 7503 3752
N 1392.83 84.8922 123.992 7504 3752
N 1532.47 78.37090000000001 148.72 7505 3753
N 1533.12 78.08029999999999 147.85 7506 3753
N 1512.58 0.656587 50.685 7507 3754
N 1513.12 1.55436 51.0807 7508 3754
N 1385.56 4.63675 103.388 7509 3755
N 1385.1 3.67276 103.747 7510 3755
N 1809.88 58.281 67.1931 7511 3756
N 1810.71 58.77 66.6317 7512 3756
N 1462.61 105.466 147.148 7513 3757
N 1462.19 105.777 146.144 7514 3757
N 1444.76 116.962 120.959 7515 3758
N 1444.04 116.725 120.156 7516 3758
N 1537.37 28.8186 71.4401 7517 3759
N 1537.8 29.0815 70.42019999999999 7518 3759
N 1464.33 97.3935 118.695 7519 3760
N 1463.64 96.7052 118.156 7520 3760
N 1544.46 62.3416 36.2765 7521 3761
N 1543.88 62.1424 37.2129 7522 3761
N 1830.96 90.29000000000001 36.4833 7523 3762
N 1830.9 90.8616 37.4405 7524 3762
N 1385.27 47.2755 86.10209999999999 7525 3763
N 1386.09 47.7861 86.6743 7526 3763
N 1563.85 56.8734 8.653269999999999 7527 3764
N 1564.81 56.9201 8.0806 7528 3764
N 1398.66 2.13889 142.388 7529 3765
N 1397.75 2.07565 141.724 7530 3765
N 1505.14 54.9165 56.6132 7531 3766
N 1505.39 55.9893 56.6025 7532 3766
N 1666.13 138.509 38.2316 7533 3767
N 1666.81 138.815 37.3817 7534 3767
N 1418.47 64.2551 20.8055 7535 3768
N 1418.11 63.5726 21.6214 7536 3768
N 1443.83 86.1846 105.755 7537 3769
N 1444.1 86.8177 104.875 7538 3769
N 1526.38 119.872 33.5232 7539 3770
N 1525.97 119.425 34.4743 7540 3770
N 1536.63 28.0778 2.39739 7541 3771
N 1536.84 29.1285 2.07685 7542 3771
N 1462.47 38.9595 50.1792 7543 3772
N 1461.84 38.0975 49.8466 7544 3772
N 1476.6 94.346 114.152 7545 3773
N 1476.76 94.4603 113.045 7546 3773
N 1524.91 30.4306 136.361 7547 3774
N 1524.04 31.0876 136.188 7548 3774
N 2263.85 91.4277 1.45286 7549 3775
N 2264.77 91.94110000000001 1.05956 7550 3775
N 1642.03 130.727 0.412785 7551 3776
N 1641.27 130.483 149.623 7552 3776
N 1501.55 48.7706 140.376 7553 3777
N 1502.04 48.6871 141.378 7554 3777
N 1425.03 33.8062 23.5731 7555 3778
N 1423.92 33.8911 23.4256 7556 3778
N 1501.71 55.7954 134.856 7557 3779
N 1502.26 56.6284 135.348 7558 3779
N 1544.52 11.3306 97.0886 7559 3780
N 1545.39 11.1768 97.7696 7560 3780
N 1550.24 4.26379 72.0908 7561 3781
N 1550.45 5.19325 71.4974 7562 3781
N 2176.27 49.4016 129.49 7563 3782
N 2176.39 50.3243 128.867 7564 3782
N 1359.34 140.777 112.707 7565 3783
N 1359.16 141.572 113.464 7566 3783
N 1575.83 146.692 63.8915 7567 3784
N 1576.94 146.822 63.8694 7568 3784
N 1566.81 39.5385 88.1018 7569 3785
N 1565.69 39.4733 88.2589 7570 3785
N 1648.92 27.2681 113.817 7571 3786
N 1649.11 27.3576 114.912 7572 3786
N 1461.66 93.1468 146.91 7573 3787
N 1460.6 93.44029999999999 146.739 7574 3787
N 1385.23 96.8254 21.325 7575 3788
N 1384.99 96.1848 20.409 7576 3788
N 1382.04 69.3832 94.11620000000001 7577 3789
N 1381.36 68.6181 94.58620000000001 7578 3789
N 1528.98 101.778 139.747 7579 3790
N 1527.96 101.335 139.821 7580 3790
N 1484.21 61.9996 117.06 7581 3791
N 1484.77 62.367 116.18 7582 3791
N 1436.15 22.7606 98.623 7583 3792
N 1435.04 22.7285 98.479 7584 3792
N 1545.98 32.6998 81.6917 7585 3793
N 1546.03 33.8148 81.57859999999999 7586 3793
N 1486.86 60.2018 14.5836 7587 3794
N 1487.83 60.6178 14.9842 7588 3794
N 1592.52 16.7616 41.3532 7589 3795
N 1593.42 17.2851 41.766 7590 3795
N 1696.41 122.935 52.5127 7591 3796
N 1697.53 122.808 52.5129 7592 3796
N 1678.11 5.34467 124.448 7593 3797
N 1678.43 6.07697 125.235 7594 3797
N 1441.62 74.7587 54.856 7595 3798
N 1442.2 74.0317 55.4732 7596 3798
N 1384.07 2.54773 92.232 7597 3799
N 1383.49 3.4771 92.4692 7598 3799
N 1407.97 41.171 65.19 7599 3800
N 1407.89 42.283 65.062 7600 3800
N 1447.31 85.5052 14.6244 7601 3801
N 1448.35 85.9229 14.7386 7602 3801
N 1795.03 22.7664 126.567 7603 3802
N 1794.94 22.0495 127.411 7604 3802
N 1484.02 57.0576 139.13 7605 3803
N 1483.76 57.9044 139.831 7606 3803
N 1401.85 124.938 82.8447 7607 3804
N 1401.56 123.966 82.38160000000001 7608 3804
N 1587.22 99.0879 67.84690000000001 7609 3805
N 1588.2 99.11539999999999 68.3625 7610 3805
N 1512.18 86.51009999999999 105.987 7611 3806
N 1512.26 85.9872 104.986 7612 3806
N 1399.18 14.1675 68.25239999999999 7613 3807
N 1399.52 15.2391 68.1271 7614 3807
N 1583.5 146.613 76.5361 7615 3808
N 1584.55 146.446 76.1773 7616 3808
N 1716.07 124.53 122.998 7617 3809
N 1715.42 125.407 122.711 7618 3809
N 1411.24 77.12730000000001 33.8284 7619 3810
N 1410.12 77.20359999999999 33.9401 7620 3810
N 1427.35 45.493 23.7963 7621 3811
N 1426.35 45.9858 23.7313 7622 3811
N 1570.35 39.0746 114.2 7623 3812
N 1570.83 39.6235 113.353 7624 3812
N 1393.54 20.4182 61.3351 7625 3813
N 1393.15 20.232 60.2892 7626 3813
N 1417.1 142.442 85.0316 7627 3814
N 1417.11 142.853 86.065 7628 3814
N 1367.82 70.0509 95.017 7629 3815
N 1368.48 70.6647 95.67529999999999 7630 3815
N 1664.98 94.08029999999999 121.587 7631 3816
N 1664.43 93.4646 122.327 7632 3816
N 1824.55 18.7648 124.514 7633 3817
N 1823.74 19.3463 124 7634 3817
N 1592.08 89.9834 28.3184 7635 3818
N 1592.16 90.9662 28.8498 7636 3818
N 1948.76 84.2467 38.573 7637 3819
N 1949.45 83.6887 37.8921 7638 3819
N 1715.52 47.2313 29.2016 7639 3820
N 1716.29 47.1823 30.0136 7640 3820
N 1364.6 12.8601 57.1255 7641 3821
N 1364.2 11.9744 57.6965 7642 3821
N 1614.4 43.1738 32.8281 7643 3822
N 1613.83 43.7846 33.5736 7644 3822
N 1447.62 98.14190000000001 35.4486 7645 3823
N 1446.64 98.6849 35.4254 7646 3823
N 1527.95 5.50673 51.7649 7647 3824
N 1528.69 5.82101 52.546 7648 3824
N 1400.56 75.9931 144.872 7649 3825
N 1400.7 75.9615 145.978 7650 3825
N 1770.59 63.8996 124.849 7651 3826
N 1770 64.6566 125.411 7652 3826
N 1456.32 60.541 72.91459999999999 7653 3827
N 1455.19 60.5167 73.0839 7654 3827
N 1804.71 61.2624 34.576 7655 3828
N 1805.46 61.3851 33.7684 7656 3828
N 1674.03 103.635 11.2748 7657 3829
N 1673.8 104.445 12.0209 7658 3829
N 1346.07 17.5907 10.118 7659 3830
N 1345.68 18.6261 10.2928 7660 3830
N 1383.88 20.5143 42.7366 7661 3831
N 1383.27 19.918 42.0293 7662 3831
N 1598.55 141.547 123.183 7663 3832
N 1598.23 142.372 122.5 7664 3832
N 1535.67 145.591 149.949 7665 3833
N 1535.8 145.939 1.01173 7666 3833
N 1409.98 60.8998 70.0989 7667 3834
N 1409.95 59.7865 69.98569999999999 7668 3834
N 1438.8 59.4045 62.5821 7669 3835
N 1439.01 59.4035 63.6866 7670 3835
N 1413.06 147.364 113.618 7671 3836
N 1413.72 146.733 114.259 7672 3836
N 1581.53 87.0723 102.146 7673 3837
N 1581.38 86.08280000000001 101.646 7674 3837
N 1807.41 92.1455 38.8356 7675 3838
N 1806.9 91.1623 38.6365 7676 3838
N 1521.22 49.1867 65.1961 7677 3839
N 1521.22 48.6273 64.23050000000001 7678 3839
N 1466.77 69.3045 126.626 7679 3840
N 1466.31 69.7692 125.715 7680 3840
N 1548.48 46.0227 120.79 7681 3841
N 1549.01 45.486 121.628 7682 3841
N 1552.77 76.4203 30.683 7683 3842
N 1551.72 76.0556 30.6097 7684 3842
N 1711.6 83.4885 63.6233 7685 3843
N 1711.23 82.83459999999999 62.791 7686 3843
N 1531.69 8.420059999999999 87.1367 7687 3844
N 1531.21 8.598750000000001 86.1414 7688 3844
N 1540.88 49.7284 71.6232 7689 3845
N 1541.96 49.851 71.90430000000001 7690 3845
N 1704.16 140.038 138.226 7691 3846
N 1704.99 139.473 138.716 7692 3846
N 1671.28 118.788 125.533 7693 3847
N 1671.77 118.34 126.436 7694 3847
N 1391.72 120.629 71.7133 7695 3848
N 1390.75 120.074 71.84350000000001 7696 3848
N 1413.44 141.063 88.9038 7697 3849
N 1412.74 141.921 89.04810000000001 7698 3849
N 1464.11 97.4388 84.9131 7699 3850
N 1465.02 96.9299 85.3151 7700 3850
N 1425.62 91.0515 95.7373 7701 3851
N 1425.43 91.14239999999999 94.6345 7702 3851
N 1527.7 30.7625 58.8146 7703 3852
N 1527.99 31.8314 58.6722 7704 3852
N 1429.69 139.973 55.898 7705 3853
N 1430.48 140.753 55.6866 7706 3853
N 1497.67 5.39787 44.8239 7707 3854
N 1498.13 6.19239 45.4604 7708 3854
N 1652.16 36.7628 42.2484 7709 3855
N 1653.25 36.6723 42.477 7710 3855
N 1898.25 108.517 84.6163 7711 3856
N 1898.86 109.462 84.6049 7712 3856
N 1403.65 123.416 45.5004 7713 3857
N 1402.66 123.962 45.5622 7714 3857
N 1506.71 43.032 45.602 7715 3858
N 1507.41 43.3617 46.4084 7716 3858
N 1441.31 139.959 85.17749999999999 7717 3859
N 1440.36 139.939 84.5526 7718 3859
N 1453.19 44.3444 76.2491 7719 3860
N 1453.77 45.1967 76.6682 7720 3860
N 1357.78 108.352 13.3665 7721 3861
N 1358.14 107.442 13.9059 7722 3861
N 1404.47 23.203 102.089 7723 3862
N 1405.28 23.9645 102.189 7724 3862
N 1421.23 99.2945 134.474 7725 3863
N 1420.4 98.9731 133.771 7726 3863
N 1483.23 148.907 42.0325 7727 3864
N 1482.15 149.141 41.8601 7728 3864
N 1524.63 100.953 141.423 7729 3865
N 1524.14 100.029 141.034 7730 3865
N 1616.79 49.1838 65.143 7731 3866
N 1616.85 49.5864 66.18519999999999 7732 3866
N 1541.55 42.3636 78.7171 7733 3867
N 1542.5 41.7976 78.8929 7734 3867
N 1547.74 136.782 7.95992 7735 3868
N 1548.48 136.956 7.13919 7736 3868
N 1351.13 81.67230000000001 146.037 7737 3869
N 1350.32 82.3175 146.458 7738 3869
N 1905.49 28.8073 66.2089 7739 3870
N 1906.15 28.0198 65.75279999999999 7740 3870
N 1455.64 121.264 34.5216 7741 3871
N 1454.62 121.155 34.9582 7742 3871
N 1460.18 100.672 127.258 7743 3872
N 1460.62 100.325 128.234 7744 3872
N 1536.55 8.94035 85.5087 7745 3873
N 1537.13 9.747170000000001 85.0047 7746 3873
N 1392.98 65.21729999999999 129.333 7747 3874
N 1392.21 65.084 128.508 7748 3874
N 1992.89 96.80419999999999 114.201 7749 3875
N 1993.3 97.5081 114.955 7750 3875
N 1561.64 22.8949 38.2242 7751 3876
N 1561.32 21.8258 38.0623 7752 3876
N 1541.34 126.235 24.8914 7753 3877
N 1541.22 126.986 25.7004 7754 3877
N 1401.73 23.5324 51.679 7755 3878
N 1401.34 22.4774 51.6461 7756 3878
N 1394.72 86.107 25.3068 7757 3879
N 1393.99 86.9813 25.2138 7758 3879
N 1422.36 36.2888 16.6199 7759 3880
N 1421.64 37.0898 16.2915 7760 3880
N 1581.31 88.53870000000001 88.90560000000001 7761 3881
N 1580.83 88.511 87.8942 7762 3881
N 1352.78 128.026 28.8605 7763 3882
N 1353.8 127.682 28.5283 7764 3882
N 1653.06 97.6648 17.8825 7765 3883
N 1652.1 98.18859999999999 17.6664 7766 3883
N 1400.41 98.10429999999999 26.9535 7767 3884
N 1399.78 97.8665 26.0761 7768 3884
N 1510.61 119.182 68.81059999999999 7769 3885
N 1509.96 120.039 69.09010000000001 7770 3885
N 1776.77 68.3212 79.654 7771 3886
N 1776.83 69.1437 78.8935 7772 3886
N 1450.35 43.8078 133.82 7773 3887
N 1450.88 43.0014 134.35 7774 3887
N 1364.78 39.9926 22.8349 7775 3888
N 1363.83 40.4895 22.4681 7776 3888
N 1723.2 67.12220000000001 47.0324 7777 3889
N 1723.1 66.6327 48.0399 7778 3889
N 1486.91 47.5429 126.289 7779 3890
N 1487.89 47.4102 125.76 7780 3890
N 1375.39 145.906 96.0594 7781 3891
N 1376.48 146.163 96.1905 7782 3891
N 1423.18 115.61 116.332 7783 3892
N 1422.29 116.068 116.856 7784 3892
N 1579.98 92.15430000000001 14.1673 7785 3893
N 1579.47 91.1584 14.1859 7786 3893
N 1670.33 146.849 118.139 7787 3894
N 1670.09 145.919 118.708 7788 3894
N 1433.3 87.723 61.1586 7789 3895
N 1434.25 87.71550000000001 60.56 7790 3895
N 1499.28 77.8429 113.215 7791 3896
N 1499.64 76.83839999999999 112.9 7792 3896
N 1571.71 102.666 106.286 7793 3897
N 1571.89 101.563 106.372 7794 3897
N 1462.35 51.7043 107.756 7795 3898
N 1463.36 52.0917 107.474 7796 3898
N 1426.73 78.5093 134.472 7797 3899
N 1425.63 78.67010000000001 134.486 7798 3899
N 1727.58 58.4117 127.946 7799 3900
N 1726.63 57.8887 127.664 7800 3900
N 1573.27 33.1785 41.1829 7801 3901
N 1572.28 33.6044 40.8719 7802 3901
N 1777.08 107.588 147.971 7803 3902
N 1778.07 107.253 147.577 7804 3902
N 1373.42 78.9174 30.0135 7805 3903
N 1373.05 78.48139999999999 30.9755 7806 3903
N 1440.39 52.6713 89.5266 7807 3904
N 1440.88 52.0528 88.7364 7808 3904
N 1764.42 42.4806 16.5049 7809 3905
N 1763.34 42.3364 16.7667 7810 3905
N 1356.43 109.241 127.199 7811 3906
N 1355.9 108.831 126.29 7812 3906
N 1751.27 81.9295 109.255 7813 3907
N 1750.96 82.221 108.211 7814 3907
N 1519.42 54.6581 55.0239 7815 3908
N 1518.88 55.3107 54.2896 7816 3908
N 1506.05 17.5684 112.846 7817 3909
N 1505.98 17.0356 111.859 7818 3909
N 1434.86 61.1932 54.7108 7819 3910
N 1435.31 60.7006 55.6211 7820 3910
N 1459.91 23.9467 94.8904 7821 3911
N 1460.08 22.8609 95.1152 7822 3911
N 1457.92 47.4707 62.8334 7823 3912
N 1458.31 48.0355 63.7281 7824 3912
N 1870.85 119.065 40.0943 7825 3913
N 1871.38 119.822 39.4597 7826 3913
N 1369.61 107.112 105.309 7827 3914
N 1368.67 107.292 105.874 7828 3914
N 1607.47 74.8587 122.87 7829 3915
N 1607.87 74.9361 121.83 7830 3915
N 1439.43 77.8078 96.48609999999999 7831 3916
N 1440.03 77.9482 95.5543 7832 3916
N 1354 90.941 127.666 7833 3917
N 1353.52 90.6361 128.629 7834 3917
N 1800.78 4.53866 105.685 7835 3918
N 1801.09 3.6158 106.244 7836 3918
N 1379.71 30.8245 80.4271 7837 3919
N 1379.82 29.7497 80.1698 7838 3919
N 1558.1 129.533 70.71939999999999 7839 3920
N 1557.74 129.632 69.6568 7840 3920
N 1402.31 75.41330000000001 122.187 7841 3921
N 1401.34 75.994 122.157 7842 3921
N 1487.64 8.079980000000001 141.322 7843 3922
N 1488.01 9.06898 140.984 7844 3922
N 1352.61 93.3613 30.1582 7845 3923
N 1352.5 92.32510000000001 29.6948 7846 3923
N 1554.57 38.5613 105.912 7847 3924
N 1554.35 37.901 106.794 7848 3924
N 1693.96 120.758 63.575 7849 3925
N 1692.9 120.453 63.4263 7850 3925
N 1476.8 94.0737 138.688 7851 3926
N 1477.54 94.9011 138.66 7852 3926
N 1517.54 9.30162 148.873 7853 3927
N 1517.68 8.19125 148.873 7854 3927
N 1588.23 67.54130000000001 117.872 7855 3928
N 1589.08 66.82340000000001 117.762 7856 3928
N 1470.9 110.25 27.1028 7857 3929
N 1471.79 110.475 26.4853 7858 3929
N 1573.85 44.6696 137.615 7859 3930
N 1574.03 45.3976 136.79 7860 3930
N 1498.66 3.9491 48.8184 7861 3931
N 1498.84 4.99922 48.4377 7862 3931
N 1525.12 14.0893 149.378 7863 3932
N 1525 15.1641 149.086 7864 3932
N 1899.11 16.8766 10.4321 7865 3933
N 1899.5 17.7758 9.888909999999999 7866 3933
N 1359.05 126.033 3.72799 7867 3934
N 1359.28 126.451 4.73168 7868 3934
N 1392.28 78.72150000000001 89.101 7869 3935
N 1392.03 77.8019 89.7115 7870 3935
N 1670.89 133.2 138.334 7871 3936
N 1670.18 132.969 137.486 7872 3936
N 1513.21 124.101 123.953 7873 3937
N 1512.9 123.288 123.25 7874 3937
N 1744.11 60.1512 20.9506 7875 3938
N 1743.4 59.558 20.3256 7876 3938
N 1395.32 118.206 129.064 7877 3939
N 1394.28 117.975 129.421 7878 3939
N 1481.83 84.4448 37.3859 7879 3940
N 1480.9 84.90730000000001 37.7705 7880 3940
N 1467.08 53.5652 122.429 7881 3941
N 1467.98 54.2273 122.482 7882 3941
N 1665.74 148.421 128.505 7883 3942
N 1665.71 147.821 127.564 7884 3942
N 1503.39 128.448 29.6062 7885 3943
N 1502.32 128.183 29.5912 7886 3943
N 1510.33 127.515 131.494 7887 3944
N 1510.71 127.574 130.434 7888 3944
N 1509.23 10.5001 29.4897 7889 3945
N 1509.07 11.6065 29.4186 7890 3945
N 1713.35 106.857 36.8541 7891 3946
N 1712.93 107.575 36.0999 7892 3946
N 1528.27 41.5366 49.6602 7893 3947
N 1528.38 40.4092 49.636 7894 3947
N 1450.13 134.119 79.24550000000001 7895 3948
N 1449.35 134.87 79.5474 7896 3948
N 1572.37 81.9128 43.7455 7897 3949
N 1571.26 81.91670000000001 43.6001 7898 3949
N 1535.5 38.4808 47.8344 7899 3950
N 1534.89 37.6324 48.226 7900 3950
N 1594.83 2.37657 55.5518 7901 3951
N 1594.13 2.28815 54.663 7902 3951
N 1464.22 97.164 66.9569 7903 3952
N 1463.66 96.8265 66.0502 7904 3952
N 1803.09 103.742 132.513 7905 3953
N 1804.18 103.744 132.751 7906 3953
N 1399.01 113.891 111.865 7907 3954
N 1399.79 113.867 112.674 7908 3954
N 1462.03 88.6981 134.46 7909 3955
N 1461.6 87.67740000000001 134.305 7910 3955
N 1644.49 2.52394 138.436 7911 3956
N 1643.6 1.94852 138.089 7912 3956
N 1627.4 3.40412 21.4796 7913 3957
N 1626.67 2.55663 21.3813 7914 3957
N 1351.82 53.3018 32.9371 7915 3958
N 1352.59 53.5141 33.7042 7916 3958
N 1686.32 107.221 111.708 7917 3959
N 1686.06 106.214 112.129 7918 3959
N 1361.05 131.898 13.3067 7919 3960
N 1361.06 133.014 13.1974 7920 3960
N 1615.17 57.0532 22.7567 7921 3961
N 1615 57.5589 23.7403 7922 3961
N 1843.71 128.415 123.619 7923 3962
N 1842.6 128.25 123.51 7924 3962
N 1502.47 115.603 138.242 7925 3963
N 1503.33 115.114 137.73 7926 3963
N 1921.94 37.4233 17.0085 7927 3964
N 1921.94 37.204 15.9106 7928 3964
N 1450.71 25.2821 44.0477 7929 3965
N 1451.16 25.8814 43.2171 7930 3965
N 1479.47 31.9348 3.97285 7931 3966
N 1480.21 32.1817 4.77891 7932 3966
N 1410.7 28.1007 141.98 7933 3967
N 1410.5 28.2512 140.883 7934 3967
N 1487.67 146.247 17.7563 7935 3968
N 1487.04 146.815 17.0178 7936 3968
N 1522.06 125.124 30.2676 7937 3969
N 1521.2 125.434 30.9298 7938 3969
N 1479.09 73.4064 116.719 7939 3970
N 1478.66 73.5585 117.754 7940 3970
N 1520.83 13.6283 31.3962 7941 3971
N 1520.61 12.5429 31.2261 7942 3971
N 1506.59 15.9055 13.7325 7943 3972
N 1505.9 15.0166 13.6686 7944 3972
N 1396.9 4.55746 73.1113 7945 3973
N 1396.84 4.31119 74.2017 7946 3973
N 1854.25 17.5098 21.7323 7947 3974
N 1853.41 18.209 21.5155 7948 3974
N 1528.96 37.8118 123.152 7949 3975
N 1528.14 38.3683 122.624 7950 3975
N 1677.13 47.3877 142.167 7951 3976
N 1677.65 47.9562 142.98 7952 3976
N 1724.68 122.06 15.918 7953 3977
N 1725.41 122.913 15.8843 7954 3977
N 1835.25 2.02284 62.2201 7955 3978
N 1836.35 2.05091 62.4489 7956 3978
N 1373.42 124.744 135.501 7957 3979
N 1373.07 124.12 134.636 7958 3979
N 1619.21 133.972 65.8523 7959 3980
N 1618.86 132.999 66.2968 7960 3980
N 1427.86 125.627 3.67519 7961 3981
N 1427 125.897 4.36542 7962 3981
N 1554.66 138.068 19.0323 7963 3982
N 1554 137.16 19.006 7964 3982
N 1626.42 99.56659999999999 48.3575 7965 3983
N 1626.84 99.279 49.3573 7966 3983
N 1729.94 0.544517 148.366 7967 3984
N 1729.07 0.489838 149.064 7968 3984
N 1517.55 116.265 20.5984 7969 3985
N 1518.52 116.089 21.1095 7970 3985
N 1645.58 141.976 12.7654 7971 3986
N 1645.05 142.085 11.7843 7972 3986
N 1485.74 29.854 98.3612 7973 3987
N 1485.94 30.7981 98.92019999999999 7974 3987
N 1649.04 26.9919 13.3063 7975 3988
N 1649.88 27.5605 13.7745 7976 3988
N 1536.43 138.555 26.8571 7977 3989
N 1537.38 137.958 27.0461 7978 3989
N 1742.36 25.0627 62.6302 7979 3990
N 1743.01 25.3286 61.7842 7980 3990
N 1506.27 130.146 85.71899999999999 7981 3991
N 1505.72 130.523 86.6097 7982 3991
N 1552.69 29.5378 58.4813 7983 3992
N 1553.4 28.7503 58.8329 7984 3992
N 1724.04 114.606 92.989 7985 3993
N 1723.58 113.58 93.09650000000001 7986 3993
N 1532.32 3.93614 51.6061 7987 3994
N 1532.52 4.73951 52.3628 7988 3994
N 1355.67 14.6592 7.16872 7989 3995
N 1356.04 13.8633 6.47213 7990 3995
N 1776.1 78.4532 67.58580000000001 7991 3996
N 1775.05 78.11969999999999 67.7891 7992 3996
N 1432.54 27.4269 8.87959 7993 3997
N 1432.89 28.2603 8.20856 7994 3997
N 1495.91 111.566 21.177 7995 3998
N 1496.73 111.969 21.8117 7996 3998
N 2211.79 148.418 119.282 7997 3999
N 2211.77 147.697 120.14 7998 3999
N 1454.04 49.2539 103.293 7999 4000
N 1454.28 50.3329 103.108 8000 4000
N 1729.21 1.36844 117.415 8001 4001
N 1728.93 1.27144 116.326 8002 4001
N 1506.58 74.1003 22.4221 8003 4002
N 1505.73 74.0676 23.137 8004 4002
N 2123.82 38.2603 109.075 8005 4003
N 2122.91 38.5808 108.493 8006 4003
N 1885.6 61.5001 142.607 8007 4004
N 1886.44 62.242 142.637 8008 4004
N 1732.68 57.1503 7.09915 8009 4005
N 1732.86 58.0748 6.50466 8010 4005
N 1801.97 9.02506 104.426 8011 4006
N 1802.62 9.433009999999999 105.243 8012 4006
N 1588.77 104.336 122.523 8013 4007
N 1588.93 105.054 123.363 8014 4007
N 1664.7 29.3287 130.396 8015 4008
N 1664.13 29.3116 129.44 8016 4008
N 1694.53 67.666 117.268 8017 4009
N 1694.82 68.34520000000001 118.118 8018 4009
N 1548.01 113.509 58.7607 8019 4010
N 1547.05 113.097 58.3658 8020 4010
N 1527.83 117.768 17.2369 8021 4011
N 1528.34 116.984 16.6207 8022 4011
N 1723.28 109.247 59.2596 8023 4012
N 1722.29 109.082 59.7406 8024 4012
N 1432.96 108.488 59.8007 8025 4013
N 1433.28 109.303 60.4973 8026 4013
N 1736.5 108.328 73.4126 8027 4014
N 1737.07 107.819 72.5847 8028 4014
N 1500.06 134.4 11.3452 8029 4015
N 1500.59 135.388 11.2831 8030 4015
N 1437.25 63.2979 112.48 8031 4016
N 1437.62 62.8656 113.447 8032 4016
N 1454.28 48.6572 17.0423 8033 4017
N 1455.33 48.3618 17.3205 8034 4017
N 1700.31 138.053 40.2117 8035 4018
N 1700.91 138.287 41.122 8036 4018
N 1467.89 27.9981 18.698 8037 4019
N 1467.45 29.0163 18.6901 8038 4019
N 1557.88 125.674 23.7544 8039 4020
N 1557.55 126.464 24.472 8040 4020
N 1692.84 131.614 104.799 8041 4021
N 1692.66 131.489 105.888 8042 4021
N 1621.25 99.01819999999999 101.887 8043 4022
N 1621.17 99.5735 102.864 8044 4022
N 1952.32 24.7403 21.3021 8045 4023
N 1952.29 24.0437 20.4423 8046 4023
N 1497.72 26.3639 32.6773 8047 4024
N 1498.8 26.2207 32.4035 8048 4024
N 1581.99 48.3286 63.0269 8049 4025
N 1582.93 48.3016 63.6231 8050 4025
N 1523.11 26.0132 12.0299 8051 4026
N 1523.47 25.4491 11.1314 8052 4026
N 1674.95 69.9543 37.9639 8053 4027
N 1675.12 70.5124 37.0167 8054 4027
N 1430.51 95.7272 108.967 8055 4028
N 1429.77 95.01309999999999 109.418 8056 4028
N 1386.25 102.508 131.248 8057 4029
N 1386.85 103.465 131.195 8058 4029
N 1518.83 93.726 21.2647 8059 4030
N 1519.5 92.8382 21.0115 8060 4030
N 1574.27 131.316 1.95065 8061 4031
N 1574.98 130.627 2.46966 8062 4031
N 1485.97 79.31010000000001 84.9119 8063 4032
N 1485.9 79.1574 86.0154 8064 4032
N 1495.47 113.707 47.448 8065 4033
N 1495.5 113.799 48.5749 8066 4033
N 1416.72 20.358 101.157 8067 4034
N 1416.06 19.456 101.219 8068 4034
N 1460.81 6.1367 31.9164 8069 4035
N 1460.67 6.97081 32.6401 8070 4035
N 1442.21 141.116 37.1472 8071 4036
N 1442.04 140.459 36.2633 8072 4036
N 1507.83 117.021 144.266 8073 4037
N 1507.92 117.871 145.008 8074 4037
N 1453.43 112.608 111.564 8075 4038
N 1453.75 111.996 110.687 8076 4038
N 1585.5 1.554 12.414 8077 4039
N 1585.79 1.58133 13.4887 8078 4039
N 1499.96 11.961 144.55 8079 4040
N 1500.2 11.8109 143.471 8080 4040
N 1404.05 32.6739 22.677 8081 4041
N 1404.11 33.5443 21.9916 8082 4041
N 1490 149.536 118.169 8083 4042
N 1490.23 149.639 119.251 8084 4042
N 1537.34 107.211 121.284 8085 4043
N 1538.24 106.545 121.339 8086 4043
N 1567.38 42.6115 126.661 8087 4044
N 1568.43 42.3334 126.401 8088 4044
N 1448.66 51.8405 87.7012 8089 4045
N 1447.93 51.7262 86.8702 8090 4045
N 1729.98 95.50490000000001 135.348 8091 4046
N 1729.33 96.1327 134.687 8092 4046
N 1352.79 137.7 145.864 8093 4047
N 1351.71 137.517 145.62 8094 4047
N 1635.52 77.8027 34.9446 8095 4048
N 1635.7 78.71599999999999 34.3149 8096 4048
N 1859.18 81.3464 26.9696 8097 4049
N 1858.72 82.35680000000001 27.0404 8098 4049
N 1676.81 9.278589999999999 5.56269 8099 4050
N 1677.61 9.697480000000001 4.89866 8100 4050
N 1845.86 70.43729999999999 40.3782 8101 4051
N 1846.83 70.0947 40.814 8102 4051
N 1446.14 81.8177 136.436 8103 4052
N 1447.12 81.87350000000001 135.88 8104 4052
N 1362.17 18.2341 75.25 8105 4053
N 1362.93 17.4554 75.01739999999999 8106 4053
N 1441.1 98.4735 31.1583 8107 4054
N 1440.5 99.24809999999999 31.7019 8108 4054
N 1620.38 24.0403 26.898 8109 4055
N 1621.04 23.3947 26.2768 8110 4055
N 1479.6 111.593 84.5684 8111 4056
N 1478.95 112.469 84.7855 8112 4056
N 1547.49 109.323 93.8879 8113 4057
N 1548.38 109.069 93.2709 8114 4057
N 1806.31 121.448 76.5552 8115 4058
N 1805.57 120.689 76.2299 8116 4058
N 1611.84 127.958 128.873 8117 4059
N 1612.62 127.813 129.676 8118 4059
N 1578.72 109.804 91.64400000000001 8119 4060
N 1579.28 110.381 92.41030000000001 8120 4060
N 1643.06 105.3 5.17275 8121 4061
N 1641.96 105.059 5.18538 8122 4061
N 1614.05 105.039 101.791 8123 4062
N 1614.12 104.416 102.716 8124 4062
N 1846.29 79.18680000000001 50.3656 8125 4063
N 1846.18 80.12560000000001 50.963 8126 4063
N 1563.02 77.1399 111.202 8127 4064
N 1562.97 76.4188 112.054 8128 4064
N 1567.39 119.83 74.7547 8129 4065
N 1567.21 120.717 74.0924 8130 4065
N 1498.56 132.315 93.4743 8131 4066
N 1498.87 131.799 94.4147 8132 4066
N 1499.6 88.2462 86.0909 8133 4067
N 1498.57 88.6387 86.29349999999999 8134 4067
N 1521.67 109.161 30.0902 8135 4068
N 1520.99 108.357 29.6842 8136 4068
N 1446.66 9.232670000000001 77.0557 8137 4069
N 1446.15 9.0365 78.038 8138 4069
N 1760.32 31.8921 101.931 8139 4070
N 1761.27 31.9538 101.329 8140 4070
N 1559.25 5.13067 111.433 8141 4071
N 1558.52 4.33652 111.163 8142 4071
N 1506.37 123.722 116.884 8143 4072
N 1505.67 124.282 116.192 8144 4072
N 1442.36 10.3469 91.1754 8145 4073
N 1443.35 9.83981 91.2736 8146 4073
N 1665.89 132.3 83.6079 8147 4074
N 1666.71 132.467 82.8738 8148 4074
N 1617.5 40.6139 141.532 8149 4075
N 1616.58 40.008 141.279 8150 4075
N 1559.93 57.4013 126.784 8151 4076
N 1558.85 57.1359 126.804 8152 4076
N 1481.17 117.182 134.551 8153 4077
N 1480.11 116.844 134.683 8154 4077
N 1508.84 32.4771 88.6788 8155 4078
N 1509.77 32.7909 88.1384 8156 4078
N 1831.38 114.875 124.971 8157 4079
N 1831.64 114.431 125.971 8158 4079
N 1712.35 69.2559 8.11285 8159 4080
N 1711.35 69.1537 8.59998 8160 4080
N 1655.48 77.346 65.36490000000001 8161 4081
N 1655.12 78.3916 65.2546 8162 4081
N 1746.3 29.4287 54.8174 8163 4082
N 1745.56 29.8741 55.5224 8164 4082
N 1538.5 144.14 8.06704 8165 4083
N 1537.46 144.373 8.411799999999999 8166 4083
N 1478.12 97.7953 94.00879999999999 8167 4084
N 1478.61 97.4385 94.94159999999999 8168 4084
N 1827.81 52.9642 8.13115 8169 4085
N 1827.05 52.3825 8.697329999999999 8170 4085
N 1673.4 43.9462 8.451040000000001 8171 4086
N 1672.97 43.4877 9.38571 8172 4086
N 1401.61 119.096 87.8818 8173 4087
N 1402.51 118.818 88.4774 8174 4087
N 1612 2.02948 12.9803 8175 4088
N 1612.63 1.5106 13.7436 8176 4088
N 1693.43 89.3201 13.1309 8177 4089
N 1693.67 90.0946 13.9012 8178 4089
N 2249.04 114.318 80.337 8179 4090
N 2247.99 114.699 80.3327 8180 4090
N 1447.23 46.3874 128.962 8181 4091
N 1447.65 46.8495 129.89 8182 4091
N 1410.3 68.75020000000001 119.15 8183 4092
N 1409.33 69.1039 119.578 8184 4092
N 1467.47 132.301 110.337 8185 4093
N 1468.09 131.613 109.751 8186 4093
N 1553.77 95.9196 138.773 8187 4094
N 1553.15 95.6776 139.653 8188 4094
N 1607.78 108.568 94.072 8189 4095
N 1607.3 108.511 95.08499999999999 8190 4095
N 1607.18 72.0561 86.7901 8191 4096
N 1607.94 71.3227 86.4273 8192 4096
N 1678.63 49.9027 8.029719999999999 8193 4097
N 1679.6 49.4005 8.338760000000001 8194 4097
N 1445.18 118.866 34.4962 8195 4098
N 1445.31 118.891 35.6012 8196 4098
N 1531.37 34.4919 70.26430000000001 8197 4099
N 1532.25 33.866 70.5615 8198 4099
N 1757.64 107.367 24.2037 8199 4100
N 1756.88 108.174 24.0799 8200 4100
N 1721.85 141.058 79.0284 8201 4101
N 1721.52 140.693 80.0342 8202 4101
N 1524.61 99.17319999999999 13.2426 8203 4102
N 1523.81 98.465 13.5395 8204 4102
N 1659.89 92.2809 62.424 8205 4103
N 1659.51 91.9885 61.4101 8206 4103
N 1717.32 47.3017 74.1327 8207 4104
N 1717.41 46.2202 73.8139 8208 4104
N 1483.12 90.5788 19.9278 8209 4105
N 1482.93 89.76990000000001 20.6848 8210 4105
N 1441.55 35.4523 13.299 8211 4106
N 1442 35.3137 12.2807 8212 4106
N 1353.87 146.151 23.7992 8213 4107
N 1353.98 147.108 23.2254 8214 4107
N 1623.17 117.13 99.5977 8215 4108
N 1622.1 116.77 99.46339999999999 8216 4108
N 1462.11 67.69840000000001 95.60339999999999 8217 4109
N 1462 67.1309 96.55840000000001 8218 4109
N 1413.9 40.4085 104.499 8219 4110
N 1414.63 41.1856 104.837 8220 4110
N 1446.37 75.709 114.353 8221 4111
N 1446.48 76.4524 115.184 8222 4111
N 1370.5 47.383 72.1931 8223 4112
N 1370.33 48.11 73.04519999999999 8224 4112
N 1948.44 48.3171 10.3224 8225 4113
N 1947.49 47.8425 10.6498 8226 4113
N 1499.17 5.56823 143.285 8227 4114
N 1498.58 4.87105 143.924 8228 4114
N 1529.55 73.0217 28.1435 8229 4115
N 1529.53 72.86669999999999 27.0363 8230 4115
N 1734.81 143.51 87.09999999999999 8231 4116
N 1735.73 143.016 86.7323 8232 4116
N 1857.2 55.9926 116.304 8233 4117
N 1858.08 56.1851 116.966 8234 4117
N 1628.45 42.9065 110.203 8235 4118
N 1628.45 41.8204 109.932 8236 4118
N 1373.05 120.298 127.511 8237 4119
N 1373.72 119.53 128.009 8238 4119
N 1857.88 117.474 145.534 8239 4120
N 1857.84 117.438 146.651 8240 4120
N 1504.49 145.178 130.043 8241 4121
N 1504.51 145.766 129.067 8242 4121
N 1444.09 85.9434 74.0406 8243 4122
N 1443.17 86.4365 73.6413 8244 4122
N 1496.87 1.26269 85.07510000000001 8245 4123
N 1496.14 1.86699 84.4876 8246 4123
N 1403.15 54.7192 128.888 8247 4124
N 1403.6 55.226 129.788 8248 4124
N 1387.65 117.001 139.423 8249 4125
N 1387.25 116.533 140.359 8250 4125
N 1411.17 12.2312 87.761 8251 4126
N 1411.79 12.1856 86.8219 8252 4126
N 1758.07 90.2933 114.445 8253 4127
N 1758.17 91.0167 113.601 8254 4127
N 1581.16 42.5705 134.239 8255 4128
N 1580.11 42.4189 133.898 8256 4128
N 1591.55 100.665 33.0959 8257 4129
N 1592.42 100.474 32.4178 8258 4129
N 1649.86 6.37957 7.32541 8259 4130
N 1650.31 5.40418 6.94577 8260 4130
N 1518.02 111.711 106.075 8261 4131
N 1517.58 111.415 105.081 8262 4131
N 1490.36 122.249 111.605 8263 4132
N 1491.23 122.817 111.238 8264 4132
N 1476 14.5379 57.9433 8265 4133
N 1475.91 14.1988 56.8783 8266 4133
N 1788.54 9.002940000000001 3.53641 8267 4134
N 1788.46 10.1012 3.34256 8268 4134
N 1353.92 104.268 70.3784 8269 4135
N 1354.05 103.778 69.37609999999999 8270 4135
N 1342.18 95.5348 79.86669999999999 8271 4136
N 1342.18 96.0214 80.89879999999999 8272 4136
N 1524.19 138.414 104.504 8273 4137
N 1524.46 138.593 105.569 8274 4137
N 1746.83 103.935 31.7227 8275 4138
N 1746.01 103.541 31.079 8276 4138
N 1613.46 19.9443 69.3687 8277 4139
N 1612.57 20.1879 68.7291 8278 4139
N 1609.27 61.5647 49.7421 8279 4140
N 1609.88 60.7852 50.2569 8280 4140
N 1435.27 126.591 130.032 8281 4141
N 1435.91 126.344 130.886 8282 4141
N 1345.97 32.7447 135.411 8283 4142
N 1346.53 32.8568 134.508 8284 4142
N 1462.15 125.171 31.5243 8285 4143
N 1463.14 125.502 31.9068 8286 4143
N 1548.77 136.602 100.271 8287 4144
N 1547.69 136.883 100.343 8288 4144
N 1780.51 140.945 97.59520000000001 8289 4145
N 1780.07 140.013 97.1189 8290 4145
N 1547.39 123.741 121.652 8291 4146
N 1546.89 122.775 121.368 8292 4146
N 1434.27 113.379 120.825 8293 4147
N 1434.4 112.84 119.85 8294 4147
N 1672.63 32.9912 59.1832 8295 4148
N 1673.6 32.7553 59.7032 8296 4148
N 1491.94 127.344 140.589 8297 4149
N 1491.14 126.584 140.369 8298 4149
N 1539.92 149.416 78.3514 8299 4150
N 1539.25 0.109989 77.77549999999999 8300 4150
N 1488.16 33.1818 101.318 8301 4151
N 1488.47 32.2529 100.797 8302 4151
N 1376.69 59.322 105.818 8303 4152
N 1376.1 58.9522 104.953 8304 4152
N 1460.05 72.1444 138.015 8305 4153
N 1459.61 71.8895 139.012 8306 4153
N 1684.01 64.6454 95.4773 8307 4154
N 1684.75 65.4422 95.20699999999999 8308 4154
N 1550.9 79.37869999999999 35.699 8309 4155
N 1551.86 78.8262 35.6926 8310 4155
N 1723.68 120.63 129.372 8311 4156
N 1723.59 120.309 128.291 8312 4156
N 1518.45 94.128 133.993 8313 4157
N 1518.18 94.9378 134.718 8314 4157
N 1673.44 109.048 99.801 8315 4158
N 1673.17 110.092 100.079 8316 4158
N 1408.25 95.5016 29.8281 8317 4159
N 1408.42 94.6347 30.5065 8318 4159
N 1526.56 86.5984 75.7163 8319 4160
N 1527.19 86.0369 74.98699999999999 8320 4160
N 1755.25 12.2367 68.58029999999999 8321 4161
N 1755.3 11.1857 68.2109 8322 4161
N 1827.58 98.3789 46.8948 8323 4162
N 1826.93 99.23390000000001 46.5672 8324 4162
N 1426.59 71.7615 47.9052 8325 4163
N 1425.96 72.2676 48.6886 8326 4163
N 1616.97 88.0231 108.568 8327 4164
N 1616.5 87.072 108.888 8328 4164
N 1529.88 136.145 45.9115 8329 4165
N 1530.93 135.789 45.7403 8330 4165
N 1567.06 99.2269 134.05 8331 4166
N 1567.76 99.3456 134.926 8332 4166
N 1633.47 19.1664 83.60169999999999 8333 4167
N 1633.97 18.6758 82.7415 8334 4167
N 1719.74 29.8627 17.8728 8335 4168
N 1719.51 29.0407 17.1546 8336 4168
N 1668.68 78.27160000000001 3.03313 8337 4169
N 1667.78 77.85129999999999 3.53694 8338 4169
N 1685.84 102.821 36.9066 8339 4170
N 1686.28 102.861 37.9397 8340 4170
N 2214.41 120.079 13.9133 8341 4171
N 2213.65 119.697 14.6467 8342 4171
N 1636.74 130.733 45.9426 8343 4172
N 1637.52 131.528 46.0126 8344 4172
N 1932.43 107.493 83.9135 8345 4173
N 1933.09 106.669 84.3068 8346 4173
N 1390.11 21.8855 52.5874 8347 4174
N 1388.98 21.9114 52.54 8348 4174
N 1654.33 101.233 9.174289999999999 8349 4175
N 1655.18 101.521 9.83372 8350 4175
N 1654.54 92.2542 102.376 8351 4176
N 1653.9 92.8526 101.683 8352 4176
N 1567.85 109.251 73.2473 8353 4177
N 1568.94 109.473 73.0843 8354 4177
N 1771.05 121.184 121.76 8355 4178
N 1770.33 121.956 122.113 8356 4178
N 1507.56 42.5229 3.41384 8357 4179
N 1507.39 43.2355 2.55915 8358 4179
N 2094.46 23.2958 121.3 8359 4180
N 2094.17 23.2989 122.374 8360 4180
N 1509.28 108.821 115.57 8361 4181
N 1508.9 109.542 114.795 8362 4181
N 1525.61 8.735989999999999 26.3752 8363 4182
N 1524.97 7.89869 26.0206 8364 4182
N 1401.28 91.2137 79.4679 8365 4183
N 1402.08 91.9208 79.15779999999999 8366 4183
N 1676.41 149.117 103.841 8367 4184
N 1675.77 149.943 104.243 8368 4184
N 1592.59 51.1083 101.487 8369 4185
N 1592.5 50.8113 102.566 8370 4185
N 1984.42 13.8645 108.978 8371 4186
N 1984.65 14.5953 108.171 8372 4186
N 1930.29 37.2071 5.4847 8373 4187
N 1931.38 36.9466 5.43555 8374 4187
N 1482.07 123.388 84.9379 8375 4188
N 1481.25 123.25 85.66970000000001 8376 4188
N 1731.63 12.0767 82.2927 8377 4189
N 1730.75 12.7423 82.4627 8378 4189
N 1889.48 72.93689999999999 0.918247 8379 4190
N 1888.7 72.851 1.70908 8380 4190
N 1457.93 130.447 91.8381 8381 4191
N 1457.12 131.114 92.24809999999999 8382 4191
N 1522.24 136.333 108.392 8383 4192
N 1522.69 135.563 107.711 8384 4192
N 1363.57 66.5744 69.0883 8385 4193
N 1364.1 65.8937 68.37609999999999 8386 4193
N 1815.91 12.9053 140.686 8387 4194
N 1815.53 12.65 139.658 8388 4194
N 1925.6 117.124 52.407 8389 4195
N 1924.73 117.434 53.038 8390 4195
N 1360.26 60.3417 36.7775 8391 4196
N 1360.02 61.2904 36.2603 8392 4196
N 1615.19 99.5149 87.08450000000001 8393 4197
N 1614.57 100.259 86.5241 8394 4197
N 1744.91 109.764 57.6096 8395 4198
N 1746 109.552 57.4076 8396 4198
N 1644.35 84.3357 120.412 8397 4199
N 1643.47 83.7623 120.091 8398 4199
N 1589.16 8.62017 138.133 8399 4200
N 1588.12 8.761369999999999 138.52 8400 4200
N 1546.26 20.8396 20.0143 8401 4201
N 1546.88 19.9434 20.2412 8402 4201
N 1696.93 3.02193 35.6686 8403 4202
N 1698.04 3.06994 35.5192 8404 4202
N 1710.92 34.2425 70.4597 8405 4203
N 1710.73 35.2086 69.9482 8406 4203
N 1457.39 6.60577 65.441 8407 4204
N 1457.92 6.52919 66.428 8408 4204
N 1558.25 98.4046 25.6324 8409 4205
N 1558.26 99.2552 26.3504 8410 4205
N 1740.33 59.5115 17.8928 8411 4206
N 1740.39 60.5975 17.6422 8412 4206
N 1740.27 65.4251 36.5152 8413 4207
N 1740.19 65.8045 35.4626 8414 4207
N 1496.43 9.551410000000001 9.13233 8415 4208
N 1495.89 8.61191 8.838240000000001 8416 4208
N 1661.56 30.6869 37.3939 8417 4209
N 1661.79 30.7916 36.3014 8418 4209
N 1671.56 98.34010000000001 128.77 8419 4210
N 1670.8 97.9854 129.497 8420 4210
N 1710.01 79.0106 133.794 8421 4211
N 1708.94 79.24420000000001 134.007 8422 4211
N 1758.06 67.2088 38.7652 8423 4212
N 1758.02 66.72329999999999 37.7589 8424 4212
N 1722.57 145.725 34.4035 8425 4213
N 1721.81 145.624 35.2193 8426 4213
N 2102.82 25.4208 142.735 8427 4214
N 2102.64 24.8986 143.712 8428 4214
N 1824.17 144.476 58.4573 8429 4215
N 1824.88 143.618 58.479 8430 4215
N 1372.36 123.951 24.762 8431 4216
N 1371.59 124.738 24.5424 8432 4216
N 1530.31 25.0246 70.4798 8433 4217
N 1530.2 25.1708 71.5882 8434 4217
N 1991.69 29.8307 119.287 8435 4218
N 1991.89 29.7134 120.386 8436 4218
N 1388.28 139.814 47.5837 8437 4219
N 1388.57 140.593 48.3323 8438 4219
N 1892.56 38.439 57.6422 8439 4220
N 1892.54 37.4278 58.1338 8440 4220
N 1560.85 127.951 93.30289999999999 8441 4221
N 1561.37 128.828 92.8627 8442 4221
N 2304.28 88.58929999999999 15.0856 8443 4222
N 2303.77 89.5497 14.834 8444 4222
N 1342.18 82.1048 79.4765 8445 4223
N 1342.18 82.35299999999999 80.57559999999999 8446 4223
N 1643.62 95.78360000000001 87.4367 8447 4224
N 1642.75 96.48399999999999 87.4405 8448 4224
N 1502.89 66.29810000000001 58.3821 8449 4225
N 1503.71 65.6384 58.8048 8450 4225
N 1753.56 42.7228 108.248 8451 4226
N 1752.68 42.1459 107.84 8452 4226
N 1499.6 52.9164 15.7262 8453 4227
N 1498.78 53.4595 15.2188 8454 4227
N 1573.42 80.08880000000001 116.239 8455 4228
N 1573.1 81.0277 116.779 8456 4228
N 1580.4 81.4271 81.5879 8457 4229
N 1579.38 81.062 81.8447 8458 4229
N 1357.72 102.066 74.83159999999999 8459 4230
N 1356.95 101.351 74.46129999999999 8460 4230
N 1832.33 56.2865 118.814 8461 4231
N 1833.23 56.7357 118.282 8462 4231
N 1417.02 2.70082 74.0196 8463 4232
N 1417.76 2.00679 73.5446 8464 4232
N 1528.21 103.775 9.69453 8465 4233
N 1528.75 104.179 8.798030000000001 8466 4233
N 1394.16 7.06566 130.377 8467 4234
N 1394.9 6.36853 129.896 8468 4234
N 1647.61 100.124 22.9651 8469 4235
N 1648.03 99.19889999999999 23.4098 8470 4235
N 1824.46 97.8578 52.0505 8471 4236
N 1823.66 97.19889999999999 51.6265 8472 4236
N 1839.96 5.03245 91.43899999999999 8473 4237
N 1840.42 5.6502 92.2557 8474 4237
N 1520.71 127.526 87.3732 8475 4238
N 1520.07 128.19 86.74299999999999 8476 4238
N 1767.54 93.37269999999999 137.522 8477 4239
N 1766.51 93.2034 137.104 8478 4239
N 1481.29 26.7731 31.3379 8479 4240
N 1482.19 27.3318 31.7157 8480 4240
N 1923.07 80.74079999999999 3.06396 8481 4241
N 1922.52 79.858 3.45152 8482 4241
N 1768.08 147.205 119.371 8483 4242
N 1767.78 147.881 120.206 8484 4242
N 1365.27 39.8787 0.56108 8485 4243
N 1364.44 39.5672 1.24826 8486 4243
N 1496.85 37.3313 149.71 8487 4244
N 1497.66 37.4873 148.957 8488 4244
N 1683.97 82.9449 54.5712 8489 4245
N 1684.65 83.8297 54.7305 8490 4245
N 1383.6 63.5224 56.2493 8491 4246
N 1383.33 62.5713 56.8017 8492 4246
N 1980.09 85.4007 143.174 8493 4247
N 1979.63 86.4252 143.201 8494 4247
N 1984.85 64.4676 100.415 8495 4248
N 1985.03 65.52200000000001 100.738 8496 4248
N 2343.14 119.669 128.902 8497 4249
N 2342.54 120.488 128.441 8498 4249
N 1353.36 14.9409 117.89 8499 4250
N 1352.39 15.4757 117.969 8500 4250
N 1546.62 80.66930000000001 71.0818 8501 4251
N 1547.49 81.08159999999999 71.6463 8502 4251
N 1831.59 39.0545 87.49720000000001 8503 4252
N 1830.94 39.2901 88.3802 8504 4252
N 1547.59 71.76009999999999 72.1283 8505 4253
N 1547.77 71.9718 71.0433 8506 4253
N 1518.26 74.0675 127.599 8507 4254
N 1518.63 74.73139999999999 126.771 8508 4254
N 1600.58 113.13 58.1013 8509 4255
N 1600.29 112.046 58.0519 8510 4255
N 1703.54 57.8148 130.298 8511 4256
N 1702.68 58.4975 130.06 8512 4256
N 1921.67 147.054 76.3908 8513 4257
N 1921.66 147.965 77.0493 8514 4257
N 1893.62 11.4852 140.449 8515 4258
N 1894.69 11.752 140.64 8516 4258
N 1606.03 106.145 18.8367 8517 4259
N 1606.12 106.647 19.8267 8518 4259
N 1601.42 113.171 13.1735 8519 4260
N 1600.71 112.307 13.1927 8520 4260
N 1471.16 115.785 92.5789 8521 4261
N 1470.41 115.683 93.39660000000001 8522 4261
N 1462.13 62.7807 64.05800000000001 8523 4262
N 1462.98 63.2991 64.5967 8524 4262
N 1664.45 73.43989999999999 80.4778 8525 4263
N 1665.42 73.13 80.9388 8526 4263
N 1541.75 29.7326 118.769 8527 4264
N 1542.76 29.509 119.206 8528 4264
N 2089.32 80.04179999999999 138.291 8529 4265
N 2089.4 80.67619999999999 139.209 8530 4265
N 1766 5.10803 78.4663 8531 4266
N 1766.61 5.18942 77.5227 8532 4266
N 1737.21 28.9132 64.81399999999999 8533 4267
N 1736.48 28.8266 65.64570000000001 8534 4267
N 1913.82 111.08 77.063 8535 4268
N 1913.91 111.802 77.9233 8536 4268
N 1531.68 101.093 122.428 8537 4269
N 1531.26 100.078 122.625 8538 4269
N 1411.37 67.18210000000001 37.7678 8539 4270
N 1410.56 67.1673 36.9648 8540 4270
N 1809.23 49.413 84.9744 8541 4271
N 1810.21 49.0778 84.58410000000001 8542 4271
N 1881.56 18.3811 55.4205 8543 4272
N 1880.9 18.0981 54.5468 8544 4272
N 1972.82 51.4606 129.561 8545 4273
N 1973.28 51.4554 130.585 8546 4273
N 1592.98 47.4729 143.934 8547 4274
N 1591.87 47.3227 143.999 8548 4274
N 1440.13 7.76599 77.00620000000001 8549 4275
N 1440.84 8.53328 76.5998 8550 4275
N 1605.17 12.4536 2.01068 8551 4276
N 1606.07 12.9207 1.51695 8552 4276
N 1572.59 75.0682 49.3821 8553 4277
N 1573.39 74.8479 48.6432 8554 4277
N 1749.27 113.438 4.29131 8555 4278
N 1748.39 113.901 4.82604 8556 4278
N 1520.48 90.4499 31.4486 8557 4279
N 1519.38 90.24850000000001 31.6261 8558 4279
N 1393.59 19.6131 24.9891 8559 4280
N 1392.51 19.8613 25.1038 8560 4280
N 1387.55 17.7388 33.8252 8561 4281
N 1386.72 18.0239 34.5191 8562 4281
N 1803.85 70.51900000000001 62.3005 8563 4282
N 1803.93 69.3999 62.3903 8564 4282
N 1458.86 128.214 8.9193 8565 4283
N 1459.56 128.728 9.638159999999999 8566 4283
N 1416.92 32.4879 36.7523 8567 4284
N 1417.14 32.3239 35.6677 8568 4284
N 1620.43 93.078 37.4934 8569 4285
N 1619.65 92.3031 37.2961 8570 4285
N 1354.94 8.92224 48.9704 8571 4286
N 1355.01 9.683109999999999 48.1992 8572 4286
N 1457.04 114.005 106.238 8573 4287
N 1457.95 114.634 106.404 8574 4287
N 1863.8 72.9247 83.19840000000001 8575 4288
N 1863.4 71.95359999999999 82.8139 8576 4288
N 1753.07 120.652 82.4276 8577 4289
N 1754.09 120.173 82.48690000000001 8578 4289
N 1951.52 96.5772 80.48099999999999 8579 4290
N 1951.26 96.4787 79.39919999999999 8580 4290
N 1534.84 73.3308 138.733 8581 4291
N 1533.78 73.5247 139.065 8582 4291
N 1637.15 39.8561 55.363 8583 4292
N 1637.66 40.724 54.8758 8584 4292
N 2322.33 4.44457 75.7123 8585 4293
N 2322.04 4.95499 74.7521 8586 4293
N 1861.75 25.0289 15.5103 8587 4294
N 1861.92 24.7361 16.5784 8588 4294
N 1483.47 94.03149999999999 111.675 8589 4295
N 1484.49 93.5981 111.832 8590 4295
N 1417.87 92.61490000000001 92.8826 8591 4296
N 1418.34 93.59050000000001 92.6103 8592 4296
N 1530.42 4.45849 125.977 8593 4297
N 1531.5 4.5065 126.266 8594 4297
N 1819.72 2.50213 12.969 8595 4298
N 1819.07 3.39142 12.7222 8596 4298
N 1412.83 141.78 49.4449 8597 4299
N 1412.75 140.745 49.8601 8598 4299
N 1679.63 125.032 27.9404 8599 4300
N 1678.99 124.978 28.8597 8600 4300
N 1342.18 134.948 116.085 8601 4301
N 1342.18 134.135 116.865 8602 4301
N 1454.23 86.43689999999999 35.3457 8603 4302
N 1454.03 85.4629 34.8357 8604 4302
N 1590.98 139.148 52.4721 8605 4303
N 1591.48 138.879 53.4353 8606 4303
N 1555.82 64.00020000000001 101.885 8607 4304
N 1556.76 63.4107 102.014 8608 4304
N 1970.69 141.148 128.466 8609 4305
N 1970.42 142.105 127.958 8610 4305
N 1524.22 24.2696 86.96810000000001 8611 4306
N 1524.69 23.9435 86.0136 8612 4306
N 1393.61 12.3168 138.371 8613 4307
N 1394.52 11.7999 138.779 8614 4307
N 1711.84 28.044 12.6285 8615 4308
N 1712.71 27.5039 13.083 8616 4308
N 1505.34 141.071 58.4212 8617 4309
N 1505.47 141.193 59.5107 8618 4309
N 1574.1 105.012 57.3068 8619 4310
N 1573.22 105.594 56.9113 8620 4310
N 1493.59 9.135999999999999 111.229 8621 4311
N 1493.69 8.022650000000001 111.292 8622 4311
N 1573.01 93.4128 17.3095 8623 4312
N 1572.55 93.57040000000001 18.3254 8624 4312
N 1577.91 143.416 50.1274 8625 4313
N 1577.23 144.296 50.309 8626 4313
N 1461.62 44.9879 71.0014 8627 4314
N 1461.38 44.4691 70.02549999999999 8628 4314
N 1416.61 146.89 52.7674 8629 4315
N 1416.66 145.783 52.6762 8630 4315
N 1601.59 143.194 121.848 8631 4316
N 1602.15 144.123 121.663 8632 4316
N 1516.26 138.983 104.068 8633 4317
N 1516.31 139.708 103.204 8634 4317
N 1397.4 38.8828 73.98090000000001 8635 4318
N 1397.03 38.2487 73.1198 8636 4318
N 1795.07 18.8593 74.93300000000001 8637 4319
N 1796.09 18.4335 75.02679999999999 8638 4319
N 1382.63 118.409 141.073 8639 4320
N 1381.52 118.353 141.052 8640 4320
N 1698.54 116.012 5.25279 8641 4321
N 1699.63 116.118 4.9971 8642 4321
N 1574.21 84.0252 90.94670000000001 8643 4322
N 1573.22 84.5107 91.0656 8644 4322
N 2621.31 36.1467 52.0261 8645 4323
N 2622.28 36.5913 51.6873 8646 4323
N 1762.9 41.0018 1.99465 8647 4324
N 1762 40.4022 1.6639 8648 4324
N 1533.4 46.3405 13.5758 8649 4325
N 1532.59 46.9355 13.0843 8650 4325
N 1636.6 0.806217 9.012219999999999 8651 4326
N 1636.73 0.606972 7.91999 8652 4326
N 1839.93 102.832 36.399 8653 4327
N 1840.54 103.372 37.1669 8654 4327
N 1495.03 130.15 84.08159999999999 8655 4328
N 1494.52 129.858 85.02290000000001 8656 4328
N 1605.95 38.9152 140.982 8657 4329
N 1605.9 39.9996 141.281 8658 4329
N 1635.09 147.961 80.7389 8659 4330
N 1634.64 148.829 80.20910000000001 8660 4330
N 1613.26 142.477 121.314 8661 4331
N 1613.09 142.113 122.36 8662 4331
N 1424.61 149.14 28.3246 8663 4332
N 1424.88 148.087 28.0158 8664 4332
N 1598.13 83.6708 107.572 8665 4333
N 1598.31 84.6271 107.039 8666 4333
N 1552.44 2.01344 91.41630000000001 8667 4334
N 1552.08 2.04787 92.4806 8668 4334
N 1876.51 63.1456 101.733 8669 4335
N 1875.47 63.4074 102.048 8670 4335
N 1832.85 144.858 55.5376 8671 4336
N 1832.28 144.01 55.9948 8672 4336
N 1691.95 54.7724 29.8311 8673 4337
N 1691.35 55.6969 29.6364 8674 4337
N 1393.98 86.6717 52.1985 8675 4338
N 1395.09 86.587 52.2979 8676 4338
N 1823.16 98.1631 45.1734 8677 4339
N 1823.96 98.7967 44.726 8678 4339
N 1357.25 38.0524 7.42961 8679 4340
N 1358.09 37.3325 7.25816 8680 4340
N 1399.09 95.1883 8.602309999999999 8681 4341
N 1399.77 95.1075 7.71533 8682 4341
N 1511.93 10.1923 109.457 8683 4342
N 1512.34 9.15096 109.296 8684 4342
N 1694.72 88.0016 145.014 8685 4343
N 1693.97 88.6156 145.56 8686 4343
N 1720.55 75.2936 26.1176 8687 4344
N 1720.25 74.42449999999999 26.7463 8688 4344
N 1532.73 50.3982 60.9563 8689 4345
N 1532.96 51.4753 60.6908 8690 4345
N 1627.25 82.1892 71.43510000000001 8691 4346
N 1626.95 82.1146 70.36750000000001 8692 4346
N 1623.51 120.398 120.475 8693 4347
N 1624.56 120.07 120.485 8694 4347
N 1501.7 99.0745 43.1934 8695 4348
N 1502.54 99.1532 42.4565 8696 4348
N 1643.34 110.802 42.9796 8697 4349
N 1642.92 111.736 43.4265 8698 4349
N 1791.29 31.5059 79.943 8699 4350
N 1791.17 32.3455 79.20910000000001 8700 4350
N 1507.31 32.5206 142.285 8701 4351
N 1507.06 31.9897 141.334 8702 4351
N 1757.8 19.1475 88.0455 8703 4352
N 1758.36 18.271 88.41719999999999 8704 4352
N 1672.77 97.94240000000001 54.6872 8705 4353
N 1671.97 98.1803 53.9465 8706 4353
N 1822.37 125.493 26.578 8707 4354
N 1821.78 126.123 25.888 8708 4354
N 1692.96 78.2038 102.146 8709 4355
N 1692.34 79.035 102.556 8710 4355
N 1515.07 55.6067 65.5663 8711 4356
N 1514 55.8873 65.77849999999999 8712 4356
N 1920.53 112.095 61.8383 8713 4357
N 1920.05 112.3 60.8531 8714 4357
N 1681.95 124.321 128.574 8715 4358
N 1681.89 123.207 128.688 8716 4358
N 1367.21 140.595 96.5235 8717 4359
N 1366.51 141.425 96.2482 8718 4359
N 1989.23 122.542 146.023 8719 4360
N 1988.61 121.632 145.834 8720 4360
N 1706.3 71.79049999999999 99.60080000000001 8721 4361
N 1705.52 71.18219999999999 100.116 8722 4361
N 1579.81 10.8525 45.8072 8723 4362
N 1580.92 10.9191 45.6532 8724 4362
N 2191.1 111.126 44.9462 8725 4363
N 2190.83 112.215 44.8206 8726 4363
N 1520.74 7.71833 131.5 8727 4364
N 1521.38 8.012359999999999 130.636 8728 4364
N 1562.78 49.6003 87.36539999999999 8729 4365
N 1563.69 48.945 87.2745 8730 4365
N 1479.21 2.85378 47.4113 8731 4366
N 1480.13 3.26502 46.9047 8732 4366
N 1682.7 106.074 144.931 8733 4367
N 1682.6 106.522 145.949 8734 4367
N 1585.98 86.7598 106.262 8735 4368
N 1586.41 86.8206 107.289 8736 4368
N 1782.47 147.747 25.7801 8737 4369
N 1781.74 147.63 26.6319 8738 4369
N 1726.35 105.579 16.9925 8739 4370
N 1726.98 106.074 16.2142 8740 4370
N 1642.97 70.0908 94.2075 8741 4371
N 1643.37 69.0421 94.1767 8742 4371
N 1519.71 60.7251 129.874 8743 4372
N 1520.8 60.4904 130.033 8744 4372
N 1477.03 56.3734 141.306 8745 4373
N 1477.63 55.4694 141.614 8746 4373
N 1494.25 23.1586 30.5716 8747 4374
N 1494.44 22.2968 31.2633 8748 4374
N 1675.52 77.501 149.166 8749 4375
N 1676.62 77.5411 149.139 8750 4375
N 2161.09 108.503 72.5163 8751 4376
N 2161.08 109.292 71.7222 8752 4376
N 1464.94 149.451 19.4928 8753 4377
N 1464.52 149.433 20.5143 8754 4377
N 1489.64 76.6267 90.4473 8755 4378
N 1488.93 77.45650000000001 90.70650000000001 8756 4378
N 1527.37 39.3887 128.136 8757 4379
N 1526.86 38.4748 128.52 8758 4379
N 2084.49 51.6613 73.4937 8759 4380
N 2084.93 51.0796 72.6493 8760 4380
N 1610.81 75.9483 103.525 8761 4381
N 1609.85 76.4079 103.884 8762 4381
N 1497.61 61.8257 91.6827 8763 4382
N 1496.99 60.9507 91.39019999999999 8764 4382
N 1647.21 26.1161 21.2024 8765 4383
N 1646.18 26.5566 21.2543 8766 4383
N 1464.31 28.095 31.3597 8767 4384
N 1464.86 27.1686 31.6299 8768 4384
N 1463.87 39.24 10.0887 8769 4385
N 1464.13 38.263 9.628159999999999 8770 4385
N 1761.27 125.206 140.707 8771 4386
N 1760.72 125.543 141.622 8772 4386
N 1645.12 113.441 15.9855 8773 4387
N 1644.17 113.157 16.5239 8774 4387
N 1550.09 56.5323 23.5162 8775 4388
N 1550.07 57.6649 23.589 8776 4388
N 1504.64 125.187 77.1444 8777 4389
N 1504.85 125.748 76.19670000000001 8778 4389
N 1402.14 107.356 107.293 8779 4390
N 1401.1 107.225 107.7 8780 4390
N 1677.29 103.216 0.676681 8781 4391
N 1677.1 103.775 1.62686 8782 4391
N 1630.28 104.188 32.0723 8783 4392
N 1629.22 104.456 31.83 8784 4392
N 1712.17 16.1324 135.046 8785 4393
N 1713.18 16.5867 135.146 8786 4393
N 1570.53 92.5275 35.9166 8787 4394
N 1571.37 93.03740000000001 36.4573 8788 4394
N 1947.36 7.10265 15.1323 8789 4395
N 1948.2 7.27014 14.43 8790 4395
N 1555.72 37.7752 143.136 8791 4396
N 1555.69 38.7325 143.702 8792 4396
N 1496.38 72.7384 9.5381 8793 4397
N 1496.26 71.7191 9.08766 8794 4397
N 1376.79 98.4166 133.061 8795 4398
N 1376.11 98.81950000000001 132.254 8796 4398
N 1737.33 20.8464 60.3434 8797 4399
N 1736.52 20.0835 60.3125 8798 4399
N 1542.34 87.5865 71.515 8799 4400
N 1542.37 87.1537 72.5471 8800 4400
N 1709.1 91.99930000000001 65.0044 8801 4401
N 1708.69 91.0219 65.3625 8802 4401
N 1927.61 111.95 28.1222 8803 4402
N 1927.78 112.413 27.1349 8804 4402
N 2565.41 8.538629999999999 92.84999999999999 8805 4403
N 2566.29 7.90239 92.59780000000001 8806 4403
N 1370.73 112.697 24.2668 8807 4404
N 1371.63 112.042 24.1511 8808 4404
N 1550.04 80.1695 125.175 8809 4405
N 1549.63 79.267 124.687 8810 4405
N 1583.32 5.9195 123.925 8811 4406
N 1584.03 6.63531 124.405 8812 4406
N 1820.14 3.57776 53.3583 8813 4407
N 1820.13 2.66052 52.7167 8814 4407
N 1615.1 83.2835 80.9691 8815 4408
N 1614.34 83.57470000000001 81.7411 8816 4408
N 1628 96.1302 136.283 8817 4409
N 1627.3 96.39060000000001 135.446 8818 4409
N 1780.17 96.62 127.519 8819 4410
N 1781.08 97.2075 127.234 8820 4410
N 1891.21 53.0725 133.976 8821 4411
N 1891.38 54.061 134.453 8822 4411
N 1981.07 86.4581 72.30540000000001 8823 4412
N 1981.8 87.0164 72.9404 8824 4412
N 1651.16 80.014 131.569 8825 4413
N 1651.78 79.7381 130.683 8826 4413
N 1626.27 85.30549999999999 131.578 8827 4414
N 1626.41 86.11450000000001 132.352 8828 4414
N 1614.14 120.724 25.7322 8829 4415
N 1614.78 120.807 26.6451 8830 4415
N 1780.87 62.0595 50.669 8831 4416
N 1780.03 61.4799 51.1302 8832 4416
N 1609.78 33.6682 143.748 8833 4417
N 1609.53 32.6016 143.951 8834 4417
N 2156.86 99.06999999999999 43.5835 8835 4418
N 2156.99 100.043 44.1304 8836 4418
N 1348.47 37.6436 78.9851 8837 4419
N 1347.64 37.3485 78.3008 8838 4419
N 1950.33 137.874 76.0547 8839 4420
N 1949.58 138.679 75.8579 8840 4420
N 1453.46 4.93279 5.5677 8841 4421
N 1452.45 4.73261 6.02359 8842 4421
N 1582.31 2.76094 117.566 8843 4422
N 1582.03 3.00451 118.617 8844 4422
N 1880.26 117.17 147.612 8845 4423
N 1879.19 117.399 147.436 8846 4423
N 1397.53 122.077 60.887 8847 4424
N 1397.32 123.172 60.8205 8848 4424
N 1647.73 84.6553 98.5943 8849 4425
N 1648.27 83.6865 98.48860000000001 8850 4425
N 1896.11 24.7394 132.6 8851 4426
N 1896.6 25.7374 132.595 8852 4426
N 2027.53 111.067 79.1844 8853 4427
N 2026.52 110.652 78.9551 8854 4427
N 1854.12 47.9867 114.221 8855 4428
N 1853.24 47.2755 114.284 8856 4428
N 1664.64 92.25409999999999 136.306 8857 4429
N 1663.84 92.07769999999999 135.565 8858 4429
N 1786.73 131.473 85.8408 8859 4430
N 1785.65 131.746 85.6867 8860 4430
N 1868.33 11.0438 73.4376 8861 4431
N 1868.68 12.0585 73.1195 8862 4431
N 1769.21 100.762 16.7905 8863 4432
N 1769.73 100.281 17.6615 8864 4432
N 1677.29 50.0947 50.0135 8865 4433
N 1676.92 49.5559 50.9258 8866 4433
N 2042.67 124.651 135.473 8867 4434
N 2043.73 124.3 135.387 8868 4434
N 1852.52 95.6544 27.9289 8869 4435
N 1851.77 96.21599999999999 27.3084 8870 4435
N 1529.78 87.53279999999999 47.182 8871 4436
N 1530.21 88.437 46.6757 8872 4436
N 1980.21 16.822 121.931 8873 4437
N 1980.67 17.8196 122.122 8874 4437
N 1403.64 90.5138 62.7885 8875 4438
N 1402.95 90.48820000000001 61.9017 8876 4438
N 1394.93 6.93299 104.033 8877 4439
N 1394.03 6.30079 104.129 8878 4439
N 2226.23 133.083 4.95187 8879 4440
N 2225.39 132.481 5.37091 8880 4440
N 1800.61 26.9577 148.325 8881 4441
N 1800.67 26.1716 147.526 8882 4441
N 1539.37 0.0396162 47.6405 8883 4442
N 1540.03 0.777243 48.1587 8884 4442
N 1959.29 102.715 144.222 8885 4443
N 1960.08 103.144 143.558 8886 4443
N 1722.49 46.9408 106.345 8887 4444
N 1722.49 46.8276 105.232 8888 4444
N 1601.09 2.81469 63.7053 8889 4445
N 1602.14 3.11874 63.5198 8890 4445
N 1754.78 37.7106 16.8884 8891 4446
N 1753.82 37.1989 16.6272 8892 4446
N 1949.89 66.4541 9.93092 8893 4447
N 1950.42 65.83839999999999 9.15813 8894 4447
N 1355.95 95.9474 32.8287 8895 4448
N 1356.18 96.1241 33.8988 8896 4448
N 1615.26 118.848 100.603 8897 4449
N 1615.51 118.486 101.622 8898 4449
N 1442.32 44.632 9.147019999999999 8899 4450
N 1443.04 45.1247 8.46035 8900 4450
N 1434 39.2107 3.53721 8901 4451
N 1433.06 39.045 2.93308 8902 4451
N 1421.47 22.7994 134.615 8903 4452
N 1421.75 23.4449 135.48 8904 4452
N 1536.58 149.771 149.414 8905 4453
N 1536.55 149.113 148.504 8906 4453
N 1609.43 10.7142 116.95 8907 4454
N 1609.7 9.655860000000001 117.185 8908 4454
N 1594.44 148.158 110.204 8909 4455
N 1593.74 147.452 109.688 8910 4455
N 1420.48 108.427 15.4141 8911 4456
N 1420.26 108.991 14.4653 8912 4456
N 2099.7 146.691 134.929 8913 4457
N 2098.84 146.343 135.509 8914 4457
N 1703.97 51.7173 72.1979 8915 4458
N 1704.06 50.6439 72.5408 8916 4458
N 1505.64 28.0716 93.7075 8917 4459
N 1505.62 28.1638 94.8272 8918 4459
N 2109.76 96.0809 36.8348 8919 4460
N 2110.16 97.0985 36.5601 8920 4460
N 1960.13 27.9117 63.7503 8921 4461
N 1960.94 27.5274 63.0815 8922 4461
N 1748.11 44.9449 61.4984 8923 4462
N 1748.97 45.0656 62.2103 8924 4462
N 1983.8 44.5124 125.672 8925 4463
N 1983.01 44.1623 126.368 8926 4463
N 1943.58 138.929 14.0268 8927 4464
N 1944.13 138.272 14.7414 8928 4464
N 2447.79 7.13465 13.3749 8929 4465
N 2446.73 6.91801 13.0693 8930 4465
N 1889.82 32.1043 93.1704 8931 4466
N 1889.45 31.188 93.71680000000001 8932 4466
N 1755.68 35.3431 97.7165 8933 4467
N 1755.7 36.4356 97.9635 8934 4467
N 1956.67 85.7727 84.6634 8935 4468
N 1957.78 85.8331 84.81399999999999 8936 4468
N 2186.99 49.625 148.78 8937 4469
N 2185.93 49.7819 149.107 8938 4469
N 1494.73 124.654 62.3036 8939 4470
N 1495.8 124.677 62.0444 8940 4470
N 1616.03 40.7897 112.456 8941 4471
N 1616.71 40.4086 111.653 8942 4471
N 1670.46 39.5995 114.759 8943 4472
N 1669.38 39.8357 114.848 8944 4472
N 1740.52 70.67919999999999 11.4673 8945 4473
N 1739.74 70.26690000000001 10.7628 8946 4473
N 2030.88 69.6841 65.23739999999999 8947 4474
N 2030.69 68.5865 65.2589 8948 4474
N 1690.26 98.37269999999999 69.4739 8949 4475
N 1690.15 99.4773 69.64960000000001 8950 4475
N 2022.33 63.6329 32.9205 8951 4476
N 2022.44 64.729 33.0243 8952 4476
N 1543.68 68.4648 87.46720000000001 8953 4477
N 1543.76 67.56140000000001 88.1281 8954 4477
N 1688.13 45.4439 71.5874 8955 4478
N 1688.39 44.8433 72.4948 8956 4478
N 1790.45 131.538 123.622 8957 4479
N 1789.82 132.338 123.162 8958 4479
N 1476.55 69.56059999999999 44.7664 8959 4480
N 1476.72 70.5064 44.211 8960 4480
N 1481.54 124.412 53.9921 8961 4481
N 1482.33 124.943 54.5648 8962 4481
N 1527.38 57.0059 7.25119 8963 4482
N 1526.59 56.9177 8.028269999999999 8964 4482
N 1512.08 149.642 81.2471 8965 4483
N 1512.54 149.388 80.2557 8966 4483
N 1592.83 73.5474 49.9448 8967 4484
N 1593.02 74.03 48.9506 8968 4484
N 1801.45 20.8986 119.339 8969 4485
N 1802.48 20.7663 119.769 8970 4485
N 1781.1 84.0705 97.35899999999999 8971 4486
N 1781.32 83.45489999999999 96.4579 8972 4486
N 1451.35 46.7156 138.955 8973 4487
N 1451.65 47.6111 138.34 8974 4487
N 1800.31 117.903 28.735 8975 4488
N 1799.22 117.963 28.9572 8976 4488
N 1743.03 119.702 60.3303 8977 4489
N 1743.28 119.433 61.3948 8978 4489
N 1475.93 39.6359 123.825 8979 4490
N 1475.85 39.7084 124.94 8980 4490
N 1994.67 13.365 18.7411 8981 4491
N 1994.69 12.8136 19.7087 8982 4491
N 1759.82 71.0728 77.24079999999999 8983 4492
N 1760.38 70.5384 76.4278 8984 4492
N 1451.8 30.7412 95.5093 8985 4493
N 1451.63 31.7278 95.00230000000001 8986 4493
N 1764.27 68.5989 89.35080000000001 8987 4494
N 1764.64 68.3925 88.3146 8988 4494
N 1589.18 15.4022 47.4922 8989 4495
N 1590.15 15.4845 46.9381 8990 4495
N 2122.7 82.1948 10.5077 8991 4496
N 2121.7 82.05889999999999 10.9648 8992 4496
N 1519.03 94.8081 16.3994 8993 4497
N 1518.5 95.6587 16.8803 8994 4497
N 1407.33 41.5817 17.1122 8995 4498
N 1408.3 42.1466 16.9961 8996 4498
N 1390.76 68.7991 30.5093 8997 4499
N 1390.58 67.71169999999999 30.3241 8998 4499
N 1463.18 124.922 52.6515 8999 4500
N 1462.23 124.436 52.3169 9000 4500
N 1688.54 95.2266 20.2208 9001 4501
N 1687.72 95.99120000000001 20.1246 9002 4501
N 1955.76 104.383 83.55889999999999 9003 4502
N 1956.08 103.351 83.247 9004 4502
N 1482.81 20.517 95.7508 9005 4503
N 1483.85 20.7253 95.42440000000001 9006 4503
N 1721.15 126.786 97.9782 9007 4504
N 1721.77 126.84 97.0408 9008 4504
N 2432.13 144.203 45.9535 9009 4505
N 2433.24 144.278 46.0343 9010 4505
N 1699.6 90.6575 27.8764 9011 4506
N 1699.16 89.8537 28.4881 9012 4506
N 1673.01 59.4593 66.8074 9013 4507
N 1672.77 59.5682 65.7152 9014 4507
N 1726.7 118.998 143.322 9015 4508
N 1727.79 119.134 143.489 9016 4508
N 1699.26 101.932 49.8444 9017 4509
N 1700.28 102.008 49.3887 9018 4509
N 1653.1 102.236 5.44791 9019 4510
N 1653.67 101.309 5.21203 9020 4510
N 1515.13 2.21691 138.516 9021 4511
N 1514.51 1.75048 137.711 9022 4511
N 1828.53 131.73 33.0352 9023 4512
N 1828.73 132.069 34.0761 9024 4512
N 1818.86 36.2462 53.8472 9025 4513
N 1818.21 36.8463 54.5509 9026 4513
N 1650.54 82.74250000000001 76.54940000000001 9027 4514
N 1650.27 82.36409999999999 77.5531 9028 4514
N 1995.35 20.6159 120.691 9029 4515
N 1995.1 20.8271 121.755 9030 4515
N 1450.4 52.2648 25.1051 9031 4516
N 1451.51 52.2978 25.2923 9032 4516
N 1867.91 27.9687 18.5726 9033 4517
N 1867.65 28.836 19.2309 9034 4517
N 2010.23 112.373 62.2364 9035 4518
N 2011.16 111.735 62.2485 9036 4518
N 1699.26 85.1895 61.2863 9037 4519
N 1698.51 85.7392 60.6542 9038 4519
N 1762.74 129.579 20.4902 9039 4520
N 1762.97 130.105 19.5305 9040 4520
N 1928.98 11.5961 37.2584 9041 4521
N 1929.81 11.1131 36.7013 9042 4521
N 1888.8 62.0732 137.878 9043 4522
N 1887.69 62.0254 137.803 9044 4522
N 1758.47 4.48825 109.005 9045 4523
N 1757.98 3.50459 109.223 9046 4523
N 2004.4 7.24703 41.9918 9047 4524
N 2003.51 7.68003 42.5182 9048 4524
N 1601.81 116.748 82.84650000000001 9049 4525
N 1601.77 117.595 82.1161 9050 4525
N 1965.73 141.09 1.16841 9051 4526
N 1965.59 140.832 0.0881334 9052 4526
N 1923.62 149.09 88.203 9053 4527
N 1922.79 148.459 87.7929 9054 4527
N 1844.55 122.797 37.9371 9055 4528
N 1843.45 122.839 37.8425 9056 4528
N 1517.89 140.593 54.5716 9057 4529
N 1517.8 140.84 55.6569 9058 4529
N 1754.32 122.483 77.10080000000001 9059 4530
N 1753.31 122.007 77.0346 9060 4530
N 1561.22 16.085 110.61 9061 4531
N 1562.15 16.0354 109.997 9062 4531
N 1906.66 6.50888 86.9996 9063 4532
N 1907.68 6.28499 86.6202 9064 4532
N 1620.39 55.0699 142.356 9065 4533
N 1620.32 55.7599 143.231 9066 4533
N 1369.8 11.7947 99.7229 9067 4534
N 1368.99 11.0132 99.68049999999999 9068 4534
N 1771.26 118.887 9.219569999999999 9069 4535
N 1772.21 118.679 9.77665 9070 4535
N 1499.24 139.972 128.987 9071 4536
N 1498.88 139.183 128.287 9072 4536
N 1785.93 112.138 16.5252 9073 4537
N 1785.08 112.064 15.8162 9074 4537
N 1606.31 110.731 27.2629 9075 4538
N 1605.58 109.97 26.8952 9076 4538
N 1973.94 133.769 82.7607 9077 4539
N 1972.91 133.965 82.3582 9078 4539
N 1614.25 73.00190000000001 112.122 9079 4540
N 1613.97 72.1932 112.844 9080 4540
N 1581.27 91.9984 80.8009 9081 4541
N 1580.57 92.2084 81.6408 9082 4541
N 1601.5 71.16670000000001 81.26390000000001 9083 4542
N 1602.19 70.5461 81.89239999999999 9084 4542
N 1828.66 118.548 31.983 9085 4543
N 1827.89 117.742 32.1069 9086 4543
N 1897 43.1444 30.6809 9087 4544
N 1896.85 44.1359 31.1771 9088 4544
N 1458.74 61.5226 67.05889999999999 9089 4545
N 1458.75 60.7809 67.8905 9090 4545
N 1668.66 7.00271 46.1972 9091 4546
N 1668.9 7.03881 45.0999 9092 4546
N 1586.95 44.6135 0.84756 9093 4547
N 1588.05 44.4544 0.894267 9094 4547
N 1763.09 77.0179 116.695 9095 4548
N 1762.09 77.5093 116.785 9096 4548
N 1801.97 126.073 114.693 9097 4549
N 1801.66 125.745 113.669 9098 4549
N 1380.37 38.4604 89.1228 9099 4550
N 1380.58 38.4532 90.2321 9100 4550
N 1896.03 72.0034 51.0995 9101 4551
N 1896.67 71.15949999999999 50.729 9102 4551
N 1769.74 120.644 50.934 9103 4552
N 1769.54 121.428 51.6843 9104 4552
N 1929.7 149.225 12.0418 9105 4553
N 1929.56 148.382 11.3188 9106 4553
N 1851.66 120.939 34.0264 9107 4554
N 1850.74 121.575 33.9945 9108 4554
N 1744.15 95.66759999999999 32.8138 9109 4555
N 1744.77 94.914 32.2709 9110 4555
N 1772.05 107.216 68.41549999999999 9111 4556
N 1771.1 107.72 68.12009999999999 9112 4556
N 1647.55 71.71420000000001 34.2508 9113 4557
N 1648.4 71.12130000000001 33.8263 9114 4557
N 1862.35 96.8951 96.9111 9115 4558
N 1862.8 97.2189 95.9425 9116 4558
N 2011.39 148.559 82.5941 9117 4559
N 2012.2 148.529 83.3653 9118 4559
N 1488.17 141.74 51.7977 9119 4560
N 1487.75 141.012 51.0644 9120 4560
N 1544.7 62.8959 30.2233 9121 4561
N 1545.59 63.4394 29.8268 9122 4561
N 1875.03 16.6679 11.3145 9123 4562
N 1875.45 16.2162 12.2521 9124 4562
N 2056.96 23.2183 128.482 9125 4563
N 2055.93 23.5465 128.742 9126 4563
N 1480.44 114.394 90.634 9127 4564
N 1480.07 114.501 91.68640000000001 9128 4564
N 1429.36 54.2205 81.0166 9129 4565
N 1429.76 55.1032 80.45959999999999 9130 4565
N 1845.85 77.85209999999999 125.459 9131 4566
N 1845.17 77.0316 125.107 9132 4566
N 1692.69 10.8692 58.1102 9133 4567
N 1691.92 11.4647 57.5513 9134 4567
N 1989.58 81.04089999999999 115.481 9135 4568
N 1988.59 80.5806 115.734 9136 4568
N 1530.34 87.3378 86.22539999999999 9137 4569
N 1529.44 87.3702 86.9102 9138 4569
N 1663.2 140.1 75.1987 9139 4570
N 1663.24 141.132 75.6699 9140 4570
N 1528.61 47.2719 118.475 9141 4571
N 1528.3 47.211 117.403 9142 4571
N 1466.82 13.5635 80.45140000000001 9143 4572
N 1465.76 13.3319 80.1951 9144 4572
N 1821.69 14.1216 110.627 9145 4573
N 1821.18 13.1461 110.416 9146 4573
N 1561.91 110.829 114.036 9147 4574
N 1563.01 110.69 113.941 9148 4574
N 1591.69 86.97020000000001 110.697 9149 4575
N 1590.86 86.97790000000001 109.957 9150 4575
N 1674.03 72.52679999999999 100.278 9151 4576
N 1674.53 71.5594 99.9936 9152 4576
N 1773.85 76.81310000000001 140.897 9153 4577
N 1774.45 76.1849 141.608 9154 4577
N 1818.91 22.9856 72.26179999999999 9155 4578
N 1819.95 22.5978 72.45229999999999 9156 4578
N 1962.64 29.0826 85.6771 9157 4579
N 1962.01 28.1835 85.4066 9158 4579
N 1578.49 106.883 119.264 9159 4580
N 1578.69 107.325 118.249 9160 4580
N 1677.41 145.775 131.401 9161 4581
N 1678.26 145.133 131.113 9162 4581
N 1826.91 37.445 47.1618 9163 4582
N 1826.26 37.4109 48.068 9164 4582
N 1629.14 139.698 131.028 9165 4583
N 1629.39 139.512 132.1 9166 4583
N 1798.83 3.49296 3.88074 9167 4584
N 1797.82 3.40334 3.42685 9168 4584
N 1961.42 87.8677 91.8541 9169 4585
N 1960.43 87.4229 92.0878 9170 4585
N 2048.51 21.104 57.0088 9171 4586
N 2047.85 21.7533 57.6361 9172 4586
N 1635.71 64.6554 102.795 9173 4587
N 1636.6 64.3164 103.395 9174 4587
N 1658.25 7.06653 34.8108 9175 4588
N 1659.09 7.79977 34.6422 9176 4588
N 1935.35 140.864 133.81 9177 4589
N 1935.21 140.461 134.846 9178 4589
N 2317.2 0.866604 119.36 9179 4590
N 2317.38 0.585634 120.427 9180 4590
N 1773.79 29.8834 102.282 9181 4591
N 1774.01 28.9824 101.65 9182 4591
N 2115.3 22.8328 106.789 9183 4592
N 2115.02 21.7908 107.101 9184 4592
N 1364.23 40.7906 9.12316 9185 4593
N 1363.69 41.1661 8.212440000000001 9186 4593
N 1500.48 23.4584 122.94 9187 4594
N 1499.61 23.3775 123.656 9188 4594
N 2213.94 18.509 33.749 9189 4595
N 2214.61 18.4725 34.6389 9190 4595
N 2390.38 134.571 114.403 9191 4596
N 2390.61 135.666 114.39 9192 4596
N 1345.9 13.2263 40.0996 9193 4597
N 1346.62 13.9946 39.7785 9194 4597
N 1598.72 11.9064 112.288 9195 4598
N 1599.69 12.2835 111.853 9196 4598
N 2027.9 30.2973 125.794 9197 4599
N 2028.57 30.0496 124.933 9198 4599
N 2099.32 28.7752 36.7933 9199 4600
N 2098.79 29.6584 36.347 9200 4600
N 1591.06 55.8823 99.8891 9201 4601
N 1591.51 56.8011 99.46339999999999 9202 4601
N 1851.97 146.075 104.759 9203 4602
N 1851.27 146.869 104.439 9204 4602
N 1681.91 55.3933 140.74 9205 4603
N 1682.12 56.4784 140.893 9206 4603
N 1622.02 105.49 70.3473 9207 4604
N 1621.25 105.936 69.6883 9208 4604
N 1539.52 137.675 9.99647 9209 4605
N 1540.53 137.692 10.4808 9210 4605
N 1800.13 19.4165 44.6874 9211 4606
N 1799.59 18.478 44.979 9212 4606
N 1529.56 31.4225 35.531 9213 4607
N 1529.08 30.6861 34.8534 9214 4607
N 1585.99 111.742 142.656 9215 4608
N 1585.02 111.77 142.129 9216 4608
N 1708.27 90.6866 88.76390000000001 9217 4609
N 1709.03 89.95350000000001 88.3967 9218 4609
N 1973.09 94.283 90.67749999999999 9219 4610
N 1974.17 94.0077 90.7787 9220 4610
N 1718.11 89.8514 19.0081 9221 4611
N 1719.07 89.7426 18.452 9222 4611
N 1871.84 96.06829999999999 145.673 9223 4612
N 1871.04 96.392 144.947 9224 4612
N 1467.27 30.068 124.712 9225 4613
N 1468.28 30.5483 124.742 9226 4613
N 1612.05 49.2173 52.7353 9227 4614
N 1612.12 49.3621 53.8424 9228 4614
N 2187.52 83.902 119.199 9229 4615
N 2188.07 83.05200000000001 119.674 9230 4615
N 1612.39 120.084 106.872 9231 4616
N 1613 119.64 107.706 9232 4616
N 1465.76 145.026 75.56270000000001 9233 4617
N 1465.97 145.305 74.5081 9234 4617
N 1576.83 80.3608 143.291 9235 4618
N 1577.24 81.40560000000001 143.375 9236 4618
N 1870.17 122.255 76.5106 9237 4619
N 1869.44 121.44 76.3031 9238 4619
N 2037.05 122.558 144.312 9239 4620
N 2037.58 121.784 143.697 9240 4620
N 1851.32 7.30565 0.883633 9241 4621
N 1851.8 7.41935 149.882 9242 4621
N 1467.76 129.347 81.6759 9243 4622
N 1468.29 130.03 82.389 9244 4622
N 1442.82 54.585 80.27970000000001 9245 4623
N 1442.26 54.407 79.3232 9246 4623
N 1590.64 110.88 100.578 9247 4624
N 1591.4 110.501 101.298 9248 4624
N 1725.14 108.039 79.93210000000001 9249 4625
N 1724.45 108.907 79.7513 9250 4625
N 1786.85 56.2227 105.448 9251 4626
N 1787.53 56.2788 106.337 9252 4626
N 1638.2 103.6 93.57550000000001 9253 4627
N 1638.61 104.629 93.52 9254 4627
N 2339 143.069 86.7954 9255 4628
N 2339.2 143.965 87.42449999999999 9256 4628
N 1904.38 147.439 69.5964 9257 4629
N 1903.9 147.406 68.5793 9258 4629
N 1421.17 26.1105 2.51982 9259 4630
N 1421.74 26.776 1.83046 9260 4630
N 1745.9 24.5773 16.4227 9261 4631
N 1745.1 23.7966 16.561 9262 4631
N 1691.83 59.3162 29.0924 9263 4632
N 1691.21 60.0317 29.714 9264 4632
N 1522.85 28.6722 133.891 9265 4633
N 1522.31 29.607 134.191 9266 4633
N 1761.45 5.3607 70.2038 9267 4634
N 1761.3 5.76798 71.23180000000001 9268 4634
N 1665.55 17.2646 93.6585 9269 4635
N 1666.49 17.5978 94.1707 9270 4635
N 1696.38 15.2731 8.763479999999999 9271 4636
N 1696.38 15.2514 9.87941 9272 4636
N 1723.92 94.08159999999999 89.6075 9273 4637
N 1725.03 93.9843 89.506 9274 4637
N 1689.67 77.2098 93.3823 9275 4638
N 1690.16 77.7638 92.5407 9276 4638
N 1408.21 25.7382 86.22450000000001 9277 4639
N 1407.91 25.8307 87.29640000000001 9278 4639
N 1637.35 139.154 80.7175 9279 4640
N 1637.56 138.994 81.8134 9280 4640
N 1899.59 70.19329999999999 0.637266 9281 4641
N 1899.21 70.818 149.782 9282 4641
N 2164.45 105.037 123.891 9283 4642
N 2164.98 105.988 124.184 9284 4642
N 1764.1 65.0577 24.3575 9285 4643
N 1764.69 65.9716 24.1849 9286 4643
N 1971.05 84.8652 46.0486 9287 4644
N 1970.16 84.1977 46.1414 9288 4644
N 2005.5 47.9964 49.5641 9289 4645
N 2006.03 48.5409 50.3818 9290 4645
N 1913.88 90.51300000000001 138.253 9291 4646
N 1914.89 90.9678 138.429 9292 4646
N 1538.61 106.11 111.763 9293 4647
N 1539.37 106.807 112.24 9294 4647
N 1783.26 72.1725 24.3227 9295 4648
N 1783.63 71.77500000000001 23.3455 9296 4648
N 1639.8 68.23739999999999 43.0049 9297 4649
N 1640.13 68.69459999999999 43.97 9298 4649
N 1402.58 115.247 9.874750000000001 9299 4650
N 1402.93 114.448 9.193479999999999 9300 4650
N 1683.22 69.6703 112.697 9301 4651
N 1683.67 70.6413 113.041 9302 4651
N 2139.21 32.8718 109.968 9303 4652
N 2139.28 33.4569 109.016 9304 4652
N 1501.48 115.936 21.7823 9305 4653
N 1502.3 115.954 22.5409 9306 4653
N 1874.46 82.50700000000001 8.36239 9307 4654
N 1874.77 82.36239999999999 9.427759999999999 9308 4654
N 2206.25 83.5878 47.0245 9309 4655
N 2206.91 84.3443 47.4994 9310 4655
N 1903.65 127.833 123.383 9311 4656
N 1904.7 128.19 123.226 9312 4656
N 1522.07 86.6551 95.3973 9313 4657
N 1523.11 86.9897 95.1986 9314 4657
N 1698.04 77.962 103.286 9315 4658
N 1698.43 77.3565 104.135 9316 4658
N 1490.32 118.791 39.4438 9317 4659
N 1490.99 118.031 39.9142 9318 4659
N 1563.82 131.282 129.206 9319 4660
N 1564.36 132.268 129.286 9320 4660
N 1622.01 73.9695 99.1484 9321 4661
N 1622.28 74.4409 98.1677 9322 4661
N 1568.87 120.115 149.794 9323 4662
N 1568.26 120.279 148.877 9324 4662
N 1554.28 30.4101 99.5945 9325 4663
N 1554.21 30.9459 100.578 9326 4663
N 1638.55 17.4088 72.6478 9327 4664
N 1637.93 17.6044 71.7435 9328 4664
N 1556.54 12.8758 123.042 9329 4665
N 1556.92 13.3698 122.095 9330 4665
N 1978.63 59.3244 16.2159 9331 4666
N 1979.37 59.8991 15.6062 9332 4666
N 1487.54 100.785 27.1938 9333 4667
N 1487.91 100.323 28.1439 9334 4667
N 2007.16 127.734 135.64 9335 4668
N 2007.09 127.441 134.564 9336 4668
N 1510.86 123.209 112.514 9337 4669
N 1511.08 122.262 111.955 9338 4669
N 1528.05 99.9492 30.1045 9339 4670
N 1527.62 98.91630000000001 30.2006 9340 4670
N 2118.3 81.4318 105.698 9341 4671
N 2119.01 82.2423 105.984 9342 4671
N 1875.76 98.7355 124.257 9343 4672
N 1875.17 99.5714 123.795 9344 4672
N 1766.95 48.3949 45.922 9345 4673
N 1767.26 48.5195 44.8571 9346 4673
N 1706.14 107.184 142.291 9347 4674
N 1706.15 106.074 142.155 9348 4674
N 1832.34 12.2727 121.459 9349 4675
N 1831.8 12.2513 120.481 9350 4675
N 1600.7 14.0635 139.688 9351 4676
N 1601.77 14.0418 139.327 9352 4676
N 1759.75 59.6312 35.98 9353 4677
N 1759.38 60.684 36.0006 9354 4677
N 1836.8 24.363 29.8535 9355 4678
N 1837.61 25.1223 29.8685 9356 4678
N 1498.82 10.7322 90.4226 9357 4679
N 1498.84 10.1056 89.50279999999999 9358 4679
N 1936.39 145.647 137.41 9359 4680
N 1935.75 146.558 137.468 9360 4680
N 1498.72 115.532 0.8066140000000001 9361 4681
N 1499.04 116.551 1.16438 9362 4681
N 1574.09 101.899 82.7325 9363 4682
N 1573 101.986 82.4948 9364 4682
N 1779.94 136.845 36.7376 9365 4683
N 1779.3 136.968 37.6452 9366 4683
N 1979.54 67.8635 15.9666 9367 4684
N 1978.44 67.7603 15.8485 9368 4684
N 1600.92 40.6802 49.5807 9369 4685
N 1600.83 40.8006 50.6896 9370 4685
N 1596.31 82.035 40.5268 9371 4686
N 1595.19 82.1709 40.4056 9372 4686
N 2130.19 45.4064 84.8121 9373 4687
N 2129.57 44.6536 85.3563 9374 4687
N 1489.33 69.205 3.61831 9375 4688
N 1490.15 69.9064 3.91531 9376 4688
N 1881.64 123.537 106.851 9377 4689
N 1880.87 122.817 107.215 9378 4689
N 1749.95 12.9002 69.5087 9379 4690
N 1749.65 13.9727 69.5373 9380 4690
N 1568.32 93.55370000000001 88.9813 9381 4691
N 1568.39 94.2041 88.07989999999999 9382 4691
N 1686.4 114.695 1.53111 9383 4692
N 1685.74 114.179 2.27302 9384 4692
N 1698.88 0.43313 38.8011 9385 4693
N 1698.65 1.40738 39.3067 9386 4693
N 1695.34 38.2368 1.45965 9387 4694
N 1694.23 38.2363 1.34759 9388 4694
N 1958.64 86.98390000000001 103.746 9389 4695
N 1959.15 87.79640000000001 104.318 9390 4695
N 1593.84 93.4576 71.02290000000001 9391 4696
N 1593.13 92.6966 71.45650000000001 9392 4696
N 1651.31 88.8245 61.4762 9393 4697
N 1650.55 88.94370000000001 60.6631 9394 4697
N 1646.59 30.0327 110.238 9395 4698
N 1646.9 29.2422 109.501 9396 4698
N 1623.07 101.085 46.2581 9397 4699
N 1623.45 100.056 46.4811 9398 4699
N 1579.52 145.912 116.176 9399 4700
N 1580.01 145.619 117.139 9400 4700
N 2007.83 27.8301 96.52119999999999 9401 4701
N 2007.91 28.1471 95.447 9402 4701
N 2109.53 10.6447 129.758 9403 4702
N 2110.13 9.709860000000001 129.644 9404 4702
N 1896.48 31.1283 54.5906 9405 4703
N 1896.62 30.6949 55.597 9406 4703
N 1516.16 11.1405 25.0321 9407 4704
N 1516.48 11.8603 25.8293 9408 4704
N 2103.99 130.334 14.2636 9409 4705
N 2104.84 129.674 13.9782 9410 4705
N 1478.85 5.74675 13.4055 9411 4706
N 1478.56 6.8009 13.1639 9412 4706
N 1550.09 28.7087 138.874 9413 4707
N 1550.1 28.296 137.832 9414 4707
N 1444.63 129.31 143.356 9415 4708
N 1445.15 128.745 144.155 9416 4708
N 1648.95 66.8737 121.542 9417 4709
N 1649.14 66.3079 122.497 9418 4709
N 1700.97 34.4727 138.967 9419 4710
N 1699.89 34.1904 139.127 9420 4710
N 1600.32 119.023 13.0252 9421 4711
N 1599.7 119.806 13.537 9422 4711
N 1528.32 59.531 105.201 9423 4712
N 1528.76 59.9149 104.236 9424 4712
N 1509.64 95.44710000000001 117.317 9425 4713
N 1510.37 94.6174 117.096 9426 4713
N 1538.66 121.991 103.206 9427 4714
N 1539.77 121.847 103.211 9428 4714
N 1946.22 64.6173 46.8495 9429 4715
N 1945.65 65.5855 46.8435 9430 4715
N 1595.09 30.1379 39.1835 9431 4716
N 1595.38 29.565 38.2457 9432 4716
N 2469.29 12.772 41.7638 9433 4717
N 2469.96 11.882 41.7384 9434 4717
N 1866.77 0.0389018 12.9164 9435 4718
N 1866.8 149.288 12.0862 9436 4718
N 1601.11 148.663 72.0016 9437 4719
N 1600.41 147.977 71.4465 9438 4719
N 1730.28 43.1811 27.5123 9439 4720
N 1729.72 43.6686 26.6844 9440 4720
N 1742 57.2329 107.013 9441 4721
N 1741.71 58.1288 107.599 9442 4721
N 1616.74 149.034 78.6994 9443 4722
N 1616.96 0.135683 78.6777 9444 4722
N 1597.19 25.2765 48.9778 9445 4723
N 1598 25.9659 49.3433 9446 4723
N 1876.68 98.8116 61.3967 9447 4724
N 1876.97 99.0393 60.3351 9448 4724
N 1536.78 136.864 78.7544 9449 4725
N 1536.51 137.297 79.7492 9450 4725
N 1542.98 106.852 100.967 9451 4726
N 1543.83 106.594 100.28 9452 4726
N 1861.67 76.26009999999999 148.924 9453 4727
N 1862.31 75.6365 149.599 9454 4727
N 1841.69 132.057 137.122 9455 4728
N 1841.8 132.249 138.216 9456 4728
N 1438.44 131.778 14.7188 9457 4729
N 1438.99 132.454 14.0243 9458 4729
N 1630.41 103.814 78.7897 9459 4730
N 1630.6 104.336 77.8253 9460 4730
N 1545.03 115.407 119.75 9461 4731
N 1545.46 115.775 120.715 9462 4731
N 1984.71 6.04872 82.0215 9463 4732
N 1984.8 6.76736 81.1696 9464 4732
N 1867.99 130.316 44.7956 9465 4733
N 1866.88 130.275 44.8436 9466 4733
N 1531.74 40.1309 64.09139999999999 9467 4734
N 1532.48 40.4384 63.3068 9468 4734
N 1584.03 98.1431 32.8684 9469 4735
N 1583.99 99.17010000000001 33.3116 9470 4735
N 1860.22 127.983 116.05 9471 4736
N 1859.19 127.584 115.91 9472 4736
N 2025.4 44.9605 84.767 9473 4737
N 2026.12 45.5531 85.38760000000001 9474 4737
N 1449.51 134.367 70.4076 9475 4738
N 1448.58 134.403 71.02809999999999 9476 4738
N 1729.21 149.319 71.78279999999999 9477 4739
N 1730 0.039161 71.429 9478 4739
N 2124.92 42.5884 47.6796 9479 4740
N 2124.21 43.1245 48.38 9480 4740
N 1587.64 18.3203 111.628 9481 4741
N 1587.15 18.5921 112.59 9482 4741
N 1914.4 44.6689 109.485 9483 4742
N 1914.78 45.3888 108.709 9484 4742
N 1574.49 136.094 129.356 9485 4743
N 1574.8 135.549 130.283 9486 4743
N 1574.19 98.7366 21.0863 9487 4744
N 1573.76 98.84829999999999 22.1116 9488 4744
N 1901.83 19.6625 88.6086 9489 4745
N 1901.72 20.7841 88.5611 9490 4745
N 1567.82 1.73107 13.885 9491 4746
N 1566.8 1.63603 14.3524 9492 4746
N 1842.56 65.3019 45.3546 9493 4747
N 1843.53 64.7846 45.6135 9494 4747
N 2221.65 6.3846 47.3707 9495 4748
N 2221.95 7.21459 46.675 9496 4748
N 1441.28 66.05329999999999 60.5126 9497 4749
N 1442.03 66.48650000000001 59.7972 9498 4749
N 1851.16 127.482 74.0471 9499 4750
N 1850.05 127.623 74.08240000000001 9500 4750
N 2073.18 139.356 61.6889 9501 4751
N 2073.66 138.418 61.3024 9502 4751
N 1540.51 127.112 99.5772 9503 4752
N 1541.54 126.689 99.47020000000001 9504 4752
N 1677.44 72.34699999999999 13.9384 9505 4753
N 1677.33 71.899 12.9185 9506 4753
N 1722.33 8.73733 40.5638 9507 4754
N 1722.53 7.63983 40.5758 9508 4754
N 1469.41 112.987 71.8681 9509 4755
N 1469.44 114.006 72.3338 9510 4755
N 1370.88 70.33329999999999 50.737 9511 4756
N 1371.76 70.91849999999999 50.386 9512 4756
N 1606.99 36.3393 3.75176 9513 4757
N 1606.79 37.1438 4.50232 9514 4757
N 2089.26 30.0254 120.742 9515 4758
N 2090.37 30.1537 120.654 9516 4758
N 1711.89 49.833 119.919 9517 4759
N 1712.67 50.2565 119.255 9518 4759
N 1522.21 43.1533 68.8112 9519 4760
N 1522.37 42.1428 69.2681 9520 4760
N 2143.02 5.86476 89.7441 9521 4761
N 2143.06 4.8081 90.092 9522 4761
N 1555.33 47.2467 19.1253 9523 4762
N 1554.76 46.6042 18.411 9524 4762
N 1463.75 72.30500000000001 36.1634 9525 4763
N 1463.27 71.53149999999999 36.8153 9526 4763
N 1774.07 146.111 115.552 9527 4764
N 1774.25 146.041 116.66 9528 4764
N 1917.69 133.734 76.2054 9529 4765
N 1917.64 134.083 77.2657 9530 4765
N 1722.57 5.47344 147.102 9531 4766
N 1723.29 6.29461 146.905 9532 4766
N 1752.55 11.808 24.3897 9533 4767
N 1752.12 10.9641 24.9887 9534 4767
N 1716.1 20.947 129.465 9535 4768
N 1716.17 19.897 129.866 9536 4768
N 1876.05 67.6122 48.4058 9537 4769
N 1876.5 67.34820000000001 49.3954 9538 4769
N 1840.09 79.2295 97.6748 9539 4770
N 1840.45 79.83669999999999 96.79940000000001 9540 4770
N 2051.97 45.3568 137.096 9541 4771
N 2052.83 45.1327 136.422 9542 4771
N 1594.13 127.125 119.645 9543 4772
N 1594.79 127.778 120.277 9544 4772
N 1743.06 37.1482 41.2709 9545 4773
N 1743.85 37.7059 40.7278 9546 4773
N 1536.25 135.127 136.078 9547 4774
N 1536.48 135.56 137.092 9548 4774
N 2296.29 66.0859 135.821 9549 4775
N 2296.39 65.64239999999999 134.797 9550 4775
N 1515.62 113.271 65.98009999999999 9551 4776
N 1515.26 112.806 66.9293 9552 4776
N 1617.66 82.3916 44.7697 9553 4777
N 1617.34 81.47620000000001 45.3312 9554 4777
N 1792.31 133.602 61.8611 9555 4778
N 1791.73 134.568 61.9112 9556 4778
N 1542 32.8991 117.357 9557 4779
N 1540.97 33.1606 117.012 9558 4779
N 1821.73 123.357 3.59464 9559 4780
N 1821.6 122.254 3.44836 9560 4780
N 1525.9 12.1673 136.376 9561 4781
N 1526.15 11.8361 135.345 9562 4781
N 2336.14 36.7142 76.5472 9563 4782
N 2336.25 35.7204 77.05840000000001 9564 4782
N 1993.37 25.4365 92.9991 9565 4783
N 1992.64 25.6337 93.82299999999999 9566 4783
N 2168.32 80.2632 9.48306 9567 4784
N 2167.73 79.33759999999999 9.28997 9568 4784
N 1843.69 36.8788 140.338 9569 4785
N 1843.6 35.7974 140.141 9570 4785
N 1610.51 7.58269 11.7053 9571 4786
N 1609.82 6.75767 12.036 9572 4786
N 1757.31 87.5877 32.15 9573 4787
N 1757.96 86.67749999999999 32.1461 9574 4787
N 1615.08 83.1563 23.2014 9575 4788
N 1616.06 82.8609 23.6465 9576 4788
N 1622.46 126.633 101.163 9577 4789
N 1622.14 127.701 101.254 9578 4789
N 1462.57 103.065 140.664 9579 4790
N 1462.03 102.118 140.963 9580 4790
N 1647.5 137.144 91.79859999999999 9581 4791
N 1648.1 137.509 92.6718 9582 4791
N 1537.14 134.334 21.9938 9583 4792
N 1536.41 134.118 22.814 9584 4792
N 1857.95 18.5837 92.7586 9585 4793
N 1858.79 17.871 92.5615 9586 4793
N 1984.21 93.1319 19.8004 9587 4794
N 1984.52 93.29389999999999 18.735 9588 4794
N 1609.25 4.20274 117.593 9589 4795
N 1609.38 3.21316 118.1 9590 4795
N 1964.01 49.6892 111.983 9591 4796
N 1964.63 48.8401 111.67 9592 4796
N 1844 101.027 15.7408 9593 4797
N 1844.62 101.945 15.9922 9594 4797
N 1957.93 22.2982 23.2604 9595 4798
N 1957.24 21.9833 24.0817 9596 4798
N 1912.8 29.1011 27.0512 9597 4799
N 1912.07 29.6044 26.3692 9598 4799
N 2073.37 7.65607 82.3764 9599 4800
N 2073.23 6.6399 81.92019999999999 9600 4800
N 1981.12 2.71178 112.46 9601 4801
N 1980.18 2.52411 113.075 9602 4801
N 1791 124.899 37.9133 9603 4802
N 1790.2 124.119 37.938 9604 4802
N 1795.7 76.9414 130 9605 4803
N 1795.2 76.15519999999999 129.382 9606 4803
N 1534.5 6.81975 115.82 9607 4804
N 1533.45 6.88555 116.228 9608 4804
N 1820.24 28.515 121.82 9609 4805
N 1819.65 27.699 121.35 9610 4805
N 1970.51 0.6790389999999999 139.092 9611 4806
N 1971.48 0.135543 139.242 9612 4806
N 2346.18 46.7741 39.7809 9613 4807
N 2345.73 47.1909 38.8444 9614 4807
N 1753.25 81.6116 20.4583 9615 4808
N 1752.67 81.6198 21.4128 9616 4808
N 1651.47 37.135 50.8727 9617 4809
N 1651.7 38.1485 50.4566 9618 4809
N 1527.39 123.55 93.2165 9619 4810
N 1527.22 122.862 94.1049 9620 4810
N 1803.89 24.3014 25.7275 9621 4811
N 1803.73 24.9697 26.605 9622 4811
N 1782.43 116.635 0.601259 9623 4812
N 1782.32 115.62 1.08636 9624 4812
N 1953.42 86.8938 56.2894 9625 4813
N 1953.86 86.637 57.2857 9626 4813
N 1642.76 119.555 90.1206 9627 4814
N 1643.66 119.149 89.61750000000001 9628 4814
N 1959.8 81.7256 20.8901 9629 4815
N 1958.91 81.81189999999999 20.2185 9630 4815
N 1552.53 140.39 97.0133 9631 4816
N 1552.92 140.234 95.98560000000001 9632 4816
N 2230.34 80.8976 146.913 9633 4817
N 2230.37 80.4718 145.876 9634 4817
N 1636.54 118.483 11.2966 9635 4818
N 1637.51 117.93 11.338 9636 4818
N 1446.44 102.422 31.5666 9637 4819
N 1446.02 101.743 30.7818 9638 4819
N 2126.72 147.485 116.791 9639 4820
N 2127.06 148.124 115.934 9640 4820
N 1740.89 45.9071 29.0142 9641 4821
N 1740.44 45.1801 29.7347 9642 4821
N 1508.78 91.4256 54.4258 9643 4822
N 1507.82 90.9487 54.0891 9644 4822
N 1970.99 105.743 132.697 9645 4823
N 1971.53 105.297 131.83 9646 4823
N 1470.31 85.9316 6.73356 9647 4824
N 1470.61 84.94889999999999 6.28541 9648 4824
N 1731.64 44.9146 104.282 9649 4825
N 1732.42 44.2436 104.731 9650 4825
N 2264.21 3.9786 31.9837 9651 4826
N 2264.59 2.92048 31.99 9652 4826
N 1476.35 139.111 47.6325 9653 4827
N 1476.58 138.18 47.0325 9654 4827
N 1550.43 74.1096 125.732 9655 4828
N 1551.45 74.5658 125.914 9656 4828
N 1981.6 47.4849 117.633 9657 4829
N 1981.72 46.4446 118.03 9658 4829
N 1454.82 74.3096 123.393 9659 4830
N 1454.33 74.3511 122.385 9660 4830
N 2070.01 28.9662 61.0978 9661 4831
N 2070.12 30.0699 60.9783 9662 4831
N 1467.99 137.554 117.096 9663 4832
N 1467.1 137.14 116.559 9664 4832
N 1721.34 71.7889 138.074 9665 4833
N 1721.87 71.6854 139.049 9666 4833
N 2460.97 14.738 62.5505 9667 4834
N 2461.49 15.63 62.9943 9668 4834
N 1800.47 6.88843 12.1401 9669 4835
N 1800.84 7.46586 13.0326 9670 4835
N 1544.45 63.7636 114.732 9671 4836
N 1543.63 64.37179999999999 115.211 9672 4836
N 2029.26 21.1059 122.858 9673 4837
N 2028.98 21.6222 123.793 9674 4837
N 1355.39 143.743 58.4113 9675 4838
N 1355.6 142.906 57.7011 9676 4838
N 1709.04 86.86369999999999 73.5526 9677 4839
N 1709.37 87.152 74.5641 9678 4839
N 1495.14 112.75 114.707 9679 4840
N 1495.52 112.892 115.755 9680 4840
N 1856.91 116.789 77.4149 9681 4841
N 1857.28 116.19 78.2831 9682 4841
N 2250.22 1.15822 54.12 9683 4842
N 2250.41 0.306401 54.8203 9684 4842
N 1623.2 20.5105 115.606 9685 4843
N 1624.13 21.1067 115.399 9686 4843
N 1397.11 70.6511 141.628 9687 4844
N 1397.74 70.029 142.314 9688 4844
N 1724.1 119.765 136.281 9689 4845
N 1723.01 119.627 136.521 9690 4845
N 1912.71 70.821 27.7316 9691 4846
N 1913.42 71.6443 28.0185 9692 4846
N 2505.41 47.7563 16.4231 9693 4847
N 2506.35 48.3555 16.4971 9694 4847
N 1505.56 72.7161 69.39530000000001 9695 4848
N 1505.22 73.4374 68.61109999999999 9696 4848
N 1583.46 53.834 106.898 9697 4849
N 1583.25 54.6605 106.184 9698 4849
N 2070.74 101.235 15.2196 9699 4850
N 2069.85 101.793 14.8759 9700 4850
N 2142.19 2.31336 53.1031 9701 4851
N 2141.51 1.6934 53.7122 9702 4851
N 2007.2 13.1813 115.162 9703 4852
N 2006.55 12.7698 115.978 9704 4852
N 1559.58 69.1193 22.477 9705 4853
N 1559.84 70.2123 22.483 9706 4853
N 2073.2 42.8112 6.33604 9707 4854
N 2073.13 41.8757 5.7381 9708 4854
N 1730.57 23.5065 13.7818 9709 4855
N 1729.75 23.2924 14.5083 9710 4855
N 1587.97 140.107 14.6822 9711 4856
N 1587.99 139.282 15.4304 9712 4856
N 2264.67 42.0335 68.3879 9713 4857
N 2263.58 41.9581 68.61279999999999 9714 4857
N 1515.26 48.2161 65.0128 9715 4858
N 1515.52 47.6553 65.9478 9716 4858
N 1799.22 92.46080000000001 86.40600000000001 9717 4859
N 1799.21 93.55329999999999 86.21939999999999 9718 4859
N 1812.24 135.173 13.7474 9719 4860
N 1812.99 134.753 14.46 9720 4860
N 1864.93 146.192 41.7988 9721 4861
N 1864.34 146.749 41.0268 9722 4861
N 2059.95 2.48054 69.5763 9723 4862
N 2059.23 3.33706 69.48779999999999 9724 4862
N 1715.09 78.3279 80.31829999999999 9725 4863
N 1714.25 77.7787 79.839 9726 4863
N 1865.97 132.562 26.8623 9727 4864
N 1865.04 133.167 26.7029 9728 4864
N 1747.92 4.73804 26.8126 9729 4865
N 1747.66 3.67698 27.0287 9730 4865
N 1979.05 136.319 18.6656 9731 4866
N 1978.73 137.063 19.4374 9732 4866
N 1863.85 10.1883 13.7589 9733 4867
N 1864.92 10.2501 14.0618 9734 4867
N 2231.75 85.9645 35.0574 9735 4868
N 2231.66 86.036 33.9433 9736 4868
N 1563.41 4.86887 15.2927 9737 4869
N 1564.4 4.41499 15.56 9738 4869
N 1957.95 128.994 27.6653 9739 4870
N 1957.7 128.02 27.186 9740 4870
N 1822.6 31.9369 27.4888 9741 4871
N 1822.19 32.9796 27.5909 9742 4871
N 1454.76 53.1749 46.7715 9743 4872
N 1454.17 52.2426 46.7457 9744 4872
N 1935 138.498 36.8384 9745 4873
N 1935.46 137.494 37.0304 9746 4873
N 2059.78 138.941 106.441 9747 4874
N 2059.17 138.879 107.378 9748 4874
N 1830.58 2.31371 117.412 9749 4875
N 1830.59 2.84015 116.429 9750 4875
N 1872.68 130.804 76.1417 9751 4876
N 1873.61 130.177 76.1148 9752 4876
N 1931.29 4.4417 36.1989 9753 4877
N 1931.99 4.65816 35.3515 9754 4877
N 1736.93 14.9868 12.6252 9755 4878
N 1737.96 15.433 12.6903 9756 4878
N 2014.35 5.90035 134.271 9757 4879
N 2015.12 6.29962 133.57 9758 4879
N 1722.24 80.1968 145.711 9759 4880
N 1722.03 81.2927 145.794 9760 4880
N 1486.91 70.08629999999999 95.1815 9761 4881
N 1487.71 70.74979999999999 95.6133 9762 4881
N 1506.73 23.6762 8.155989999999999 9763 4882
N 1506.75 24.7781 8.065020000000001 9764 4882
N 1821.15 65.3492 73.48480000000001 9765 4883
N 1822.26 65.2295 73.3005 9766 4883
N 2189.28 60.9024 131.83 9767 4884
N 2190.13 60.4444 131.263 9768 4884
N 1861.72 22.3824 82.1435 9769 4885
N 1861.7 23.3477 82.7056 9770 4885
N 1703.82 106.538 13.888 9771 4886
N 1704.06 105.558 13.4157 9772 4886
N 1680.79 3.27135 134.265 9773 4887
N 1680.59 2.36942 134.892 9774 4887
N 2224.77 70.8734 18.1785 9775 4888
N 2223.78 71.066 18.6801 9776 4888
N 1852.11 115.614 46.9873 9777 4889
N 1851.47 115.222 46.1479 9778 4889
N 2044.4 58.58 65.91679999999999 9779 4890
N 2043.67 58.7612 65.08629999999999 9780 4890
N 1796.88 93.83629999999999 90.8389 9781 4891
N 1795.83 93.7859 90.48999999999999 9782 4891
N 2314.98 30.5805 65.50539999999999 9783 4892
N 2315.99 30.8238 65.91119999999999 9784 4892
N 1543.94 127.994 29.0154 9785 4893
N 1543.7 126.891 29.0687 9786 4893
N 2096.21 94.23350000000001 113.14 9787 4894
N 2095.57 93.3172 113.197 9788 4894
N 1946.41 37.3614 14.619 9789 4895
N 1946.32 36.2494 14.7269 9790 4895
N 1545.98 96.1298 94.1785 9791 4896
N 1546.18 96.90689999999999 94.95 9792 4896
N 1892.71 58.4956 56.9655 9793 4897
N 1893.68 58.1512 57.3864 9794 4897
N 1754.14 0.6313029999999999 32.4852 9795 4898
N 1754.84 0.21903 33.2573 9796 4898
N 2038.35 148.896 143.026 9797 4899
N 2038.14 149.988 142.882 9798 4899
N 1531.33 78.9307 44.8973 9799 4900
N 1531.25 78.5506 43.8483 9800 4900
N 2214.06 96.36199999999999 144.334 9801 4901
N 2215.14 96.658 144.306 9802 4901
N 1816.92 37.7755 112.119 9803 4902
N 1816.53 37.1609 111.244 9804 4902
N 1789.82 61.5416 84.2611 9805 4903
N 1790.35 62.5251 84.3026 9806 4903
N 2445.96 35.0895 71.4556 9807 4904
N 2446.1 34.1882 72.0996 9808 4904
N 1625.49 144.37 113.622 9809 4905
N 1626.08 143.489 113.279 9810 4905
N 2053.65 5.58081 109.721 9811 4906
N 2053.16 6.41323 109.168 9812 4906
N 1845.73 35.229 16.7598 9813 4907
N 1846.16 34.3444 16.2212 9814 4907
N 1884.36 103.356 137.765 9815 4908
N 1885.31 103.518 137.177 9816 4908
N 2106.63 65.11969999999999 97.7123 9817 4909
N 2107.42 65.2826 96.9182 9818 4909
N 1966.42 77.85509999999999 11.4067 9819 4910
N 1965.42 78.126 10.9683 9820 4910
N 2003.74 149.082 61.2868 9821 4911
N 2003.17 148.688 60.4106 9822 4911
N 1396.78 94.0505 125.271 9823 4912
N 1396.78 94.4594 126.315 9824 4912
N 2219.9 13.1373 60.1703 9825 4913
N 2219.38 13.2126 61.1562 9826 4913
N 1857.51 38.3161 120.844 9827 4914
N 1858.18 39.1067 121.256 9828 4914
N 1667.83 19.7243 132.913 9829 4915
N 1667.5 20.2649 131.988 9830 4915
N 2291.37 44.5812 69.18210000000001 9831 4916
N 2292.21 44.5132 69.90170000000001 9832 4916
N 1630.45 11.3645 18.5968 9833 4917
N 1629.82 12.0834 19.1854 9834 4917
N 1616.24 26.7708 58.9495 9835 4918
N 1615.4 26.0283 58.8345 9836 4918
N 1768.88 30.9582 59.6847 9837 4919
N 1767.97 31.488 59.3307 9838 4919
N 2006.18 121.345 116.068 9839 4920
N 2007.22 121.565 116.427 9840 4920
N 1824.97 50.6649 68.23260000000001 9841 4921
N 1824.59 51.5171 68.8484 9842 4921
N 1798.37 88.80719999999999 12.7803 9843 4922
N 1797.28 88.7071 13.0139 9844 4922
N 1601.83 17.3668 60.0527 9845 4923
N 1600.92 18.0123 60.1043 9846 4923
N 1615.95 39.0129 145.472 9847 4924
N 1616.52 39.6644 144.768 9848 4924
N 2030.62 48.5034 117.63 9849 4925
N 2030.58 47.4128 117.417 9850 4925
N 1540.35 61.3354 76.0067 9851 4926
N 1539.88 62.3458 75.9134 9852 4926
N 1946.85 73.97 56.5049 9853 4927
N 1947.62 73.199 56.7371 9854 4927
N 1508.23 54.6505 95.1207 9855 4928
N 1508.78 55.0901 95.9979 9856 4928
N 1519.62 25.8386 132.255 9857 4929
N 1519.17 26.8434 132.068 9858 4929
N 1458.57 25.237 102.948 9859 4930
N 1457.86 25.3964 103.78 9860 4930
N 1706.83 40.4368 20.4951 9861 4931
N 1706.38 39.5125 20.0472 9862 4931
N 1999.06 67.74679999999999 27.4078 9863 4932
N 1998.28 66.9614 27.3031 9864 4932
N 1875.59 91.25839999999999 41.86 9865 4933
N 1876.55 91.6093 41.4028 9866 4933
N 1790.22 20.2272 90.736 9867 4934
N 1789.2 19.847 90.967 9868 4934
N 1821.93 94.58580000000001 43.3904 9869 4935
N 1821.39 94.5097 42.4033 9870 4935
N 1715.65 68.0202 107.011 9871 4936
N 1715.43 68.1463 105.925 9872 4936
N 1765.78 103.481 56.037 9873 4937
N 1764.99 102.962 56.6436 9874 4937
N 1899.93 14.016 70.1366 9875 4938
N 1898.85 14.1843 69.91289999999999 9876 4938
N 1981.15 41.1904 94.69970000000001 9877 4939
N 1980.85 40.6997 93.7469 9878 4939
N 1818.7 116.146 99.55719999999999 9879 4940
N 1818.01 117.014 99.4221 9880 4940
N 2373.75 128.352 126.227 9881 4941
N 2372.73 128.817 126.14 9882 4941
N 2512.49 100.362 5.92991 9883 4942
N 2513.42 100.311 6.54226 9884 4942
N 1882.78 96.86279999999999 52.8757 9885 4943
N 1881.81 97.21810000000001 52.4393 9886 4943
N 1638.28 91.5979 105.603 9887 4944
N 1639.07 91.8103 106.391 9888 4944
N 2241.65 114.294 52.4841 9889 4945
N 2242.35 115.168 52.5005 9890 4945
N 1820.85 127.058 58.1066 9891 4946
N 1820.14 127.359 57.2968 9892 4946
N 1814.98 131.602 50.313 9893 4947
N 1815.46 132.469 50.8328 9894 4947
N 2049.53 127.118 66.0471 9895 4948
N 2048.43 126.982 66.2153 9896 4948
N 2034.63 35.7711 79.2747 9897 4949
N 2034.47 36.847 79.0682 9898 4949
N 1958.27 114.93 142.785 9899 4950
N 1957.7 115.474 142.004 9900 4950
N 1798.9 64.4427 31.1966 9901 4951
N 1799.44 63.5327 30.8484 9902 4951
N 1941.19 35.722 26.3111 9903 4952
N 1941.76 34.8137 26.6249 9904 4952
N 2138.19 39.2383 136.409 9905 4953
N 2137.75 39.7781 135.534 9906 4953
N 1911.12 0.44257 73.90649999999999 9907 4954
N 1910.5 1.0087 73.1645 9908 4954
N 1952.72 105.705 73.3501 9909 4955
N 1952.15 105.345 72.4614 9910 4955
N 1833.58 92.5547 48.2014 9911 4956
N 1832.86 93.2069 48.7583 9912 4956
N 1873.56 112.478 27.4885 9913 4957
N 1873.47 111.415 27.8334 9914 4957
N 2031.94 36.4993 112.61 9915 4958
N 2032.06 35.6756 113.346 9916 4958
N 1920.74 93.4813 31.7132 9917 4959
N 1920.74 92.3927 31.9611 9918 4959
N 1622.84 46.4748 39.1932 9919 4960
N 1623.83 46.5346 38.6828 9920 4960
N 1914.57 122.913 14.1394 9921 4961
N 1914.94 121.889 14.3533 9922 4961
N 1953.26 9.448320000000001 123.511 9923 4962
N 1953.89 9.61889 122.614 9924 4962
N 1604.4 119.063 18.0755 9925 4963
N 1604.81 119.596 17.1829 9926 4963
N 1770.13 42.2666 45.7689 9927 4964
N 1769.85 43.3356 45.6015 9928 4964
N 2224.74 68.4388 146.839 9929 4965
N 2225.17 68.8536 147.781 9930 4965
N 1941.11 121.173 79.5526 9931 4966
N 1942.19 121.302 79.7901 9932 4966
N 1597.62 91.018 137.107 9933 4967
N 1597.58 92.133 137.002 9934 4967
N 1692.37 118.025 51.1415 9935 4968
N 1693.1 118.04 50.3018 9936 4968
N 2305.67 103.623 48.3259 9937 4969
N 2304.7 103.568 47.7754 9938 4969
N 1619.13 108.013 8.22627 9939 4970
N 1619.84 107.436 8.848000000000001 9940 4970
N 1517.89 58.9389 2.34418 9941 4971
N 1518.65 59.1602 3.13629 9942 4971
N 2165.45 89.5784 123.021 9943 4972
N 2165.72 89.4331 121.945 9944 4972
N 1913.74 67.9542 125.443 9945 4973
N 1912.81 67.4722 125.054 9946 4973
N 1605.99 80.3287 54.934 9947 4974
N 1605.89 81.2937 55.4892 9948 4974
N 2030.96 71.1066 20.03 9949 4975
N 2030.69 71.97880000000001 19.3828 9950 4975
N 1997.92 19.3524 128.836 9951 4976
N 1997.45 18.3511 128.666 9952 4976
N 1774.11 57.1065 81.01819999999999 9953 4977
N 1774.31 56.0615 81.3676 9954 4977
N 1574.84 49.9401 121.263 9955 4978
N 1575.17 48.9757 121.714 9956 4978
N 2027.26 123.465 148.864 9957 4979
N 2027.32 122.792 147.969 9958 4979
N 2119.82 34.5289 59.5559 9959 4980
N 2120.57 34.9096 58.8177 9960 4980
N 2076.5 124.899 46.7477 9961 4981
N 2077 124.949 47.7541 9962 4981
N 1793.67 130.483 1.15579 9963 4982
N 1794.29 129.87 0.455748 9964 4982
N 2078.75 106.562 51.6202 9965 4983
N 2078.75 105.665 50.9537 9966 4983
N 1670.89 39.5576 105.661 9967 4984
N 1670.29 40.2805 105.068 9968 4984
N 2093.57 131.567 10.6087 9969 4985
N 2094.58 131.826 11.0261 9970 4985
N 2071.75 44.9037 102.359 9971 4986
N 2072.8 44.8677 102.769 9972 4986
N 1904.96 67.64100000000001 119.061 9973 4987
N 1904.87 66.9849 119.962 9974 4987
N 1962.7 1.88857 41.0309 9975 4988
N 1963.8 1.8955 40.8555 9976 4988
N 1439.76 80.40900000000001 101.814 9977 4989
N 1439.57 80.8399 100.79 9978 4989
N 1548.17 109.706 98.85720000000001 9979 4990
N 1547.89 109.967 97.8004 9980 4990
N 2117.68 52.5974 56.2502 9981 4991
N 2116.75 52.9911 55.7846 9982 4991
N 2008.21 110.254 58.828 9983 4992
N 2008.16 111.361 58.795 9984 4992
N 1702.52 38.4249 30.7484 9985 4993
N 1702.69 39.0213 31.6802 9986 4993
N 1707.87 60.7866 137.146 9987 4994
N 1706.8 60.6299 136.833 9988 4994
N 1683.6 99.6626 0.131678 9989 4995
N 1683.18 100.369 0.89371 9990 4995
N 2192.08 60.1182 33.5717 9991 4996
N 2191.22 59.4233 33.6988 9992 4996
N 1496.65 102.382 139.731 9993 4997
N 1496.34 102.411 138.667 9994 4997
N 1452.97 99.029 76.7273 9995 4998
N 1452.42 98.25109999999999 77.32859999999999 9996 4998
N 1649.88 14.9532 115.528 9997 4999
N 1649.35 14.1235 114.981 9998 4999
N 1760.56 32.2128 83.616 9999 5000
N 1760.89 32.9174 84.4243 10000 5000
N 1883.53 82.393 5.61491 10001 5001
N 1882.69 83.062 5.93993 10002 5001
N 2211.54 87.28530000000001 74.2072 10003 5002
N 2212.33 87.97580000000001 73.8519 10004 5002
N 1875.61 95.916 129.744 10005 5003
N 1875.05 95.8664 130.719 10006 5003
N 1532.14 144.146 14.1968 10007 5004
N 1531.36 144.584 14.8784 10008 5004
N 2010.67 77.7555 29.7646 10009 5005
N 2011.67 77.2624 29.6689 10010 5005
N 2268.26 76.6024 122.917 10011 5006
N 2268.29 75.63720000000001 123.482 10012 5006
N 1498.45 70.8194 143.116 10013 5007
N 1497.69 70.6456 143.906 10014 5007
N 1806.16 127.541 96.5227 10015 5008
N 1806.19 126.477 96.86369999999999 10016 5008
N 1854.21 83.9096 13.3752 10017 5009
N 1854.23 82.80670000000001 13.5996 10018 5009
N 2315.18 12.2968 74.86320000000001 10019 5010
N 2316.07 11.7599 74.4333 10020 5010
N 1687.18 123.734 22.0634 10021 5011
N 1686.88 123.331 23.0601 10022 5011
N 2130.62 112.795 23.5825 10023 5012
N 2130.41 111.763 23.9782 10024 5012
N 1748.1 135.885 8.23409 10025 5013
N 1747.72 136.644 7.50233 10026 5013
N 1591.99 86.5746 38.519 10027 5014
N 1591.44 87.54559999999999 38.5106 10028 5014
N 2010.72 94.5288 24.5986 10029 5015
N 2010.28 95.17740000000001 23.805 10030 5015
N 1909.83 104.565 58.1001 10031 5016
N 1908.97 105.274 58.2586 10032 5016
N 1762.22 7.17817 107.208 10033 5017
N 1763.2 7.25042 107.74 10034 5017
N 1699.82 78.1824 148.009 10035 5018
N 1700.66 78.3266 147.273 10036 5018
N 2039.33 82.8013 53.4546 10037 5019
N 2038.45 82.38930000000001 52.8879 10038 5019
N 2153.4 149.846 42.7854 10039 5020
N 2152.44 149.321 43.0166 10040 5020
N 1910.87 16.6269 51.3182 10041 5021
N 1911.28 15.641 51.6425 10042 5021
N 2213.06 99.24039999999999 70.4675 10043 5022
N 2212.96 99.1151 71.5714 10044 5022
N 1686.24 143.593 147.736 10045 5023
N 1686.61 144.154 146.836 10046 5023
N 1844 57.5263 38.683 10047 5024
N 1843.98 56.7707 39.5264 10048 5024
N 2272.19 45.5956 5.97522 10049 5025
N 2271.66 46.1114 6.8118 10050 5025
N 1797.86 93.4829 47.1985 10051 5026
N 1797.91 93.985 46.1992 10052 5026
N 1885.88 10.4657 127.493 10053 5027
N 1885.28 11.0235 126.741 10054 5027
N 1805.48 23.226 80.04430000000001 10055 5028
N 1805.94 22.5462 79.29689999999999 10056 5028
N 1912.2 55.3863 112.413 10057 5029
N 1911.41 54.9049 113.039 10058 5029
N 2131.64 68.52679999999999 50.2566 10059 5030
N 2130.99 68.3404 49.3607 10060 5030
N 1750.26 115.518 124.46 10061 5031
N 1749.93 115.1 123.487 10062 5031
N 2193.76 2.48357 147.002 10063 5032
N 2194.51 1.84992 146.464 10064 5032
N 1885.54 107.548 134.477 10065 5033
N 1886.16 106.848 135.067 10066 5033
N 2324.87 84.41800000000001 112.095 10067 5034
N 2325.54 84.9893 112.783 10068 5034
N 2037.22 25.0072 15.009 10069 5035
N 2036.27 25.2331 15.5503 10070 5035
N 2249.99 119.012 9.14105 10071 5036
N 2250.91 119.026 9.780340000000001 10072 5036
N 2265.68 84.366 100.514 10073 5037
N 2266.21 85.2587 100.123 10074 5037
N 1347.9 89.31699999999999 112.115 10075 5038
N 1348.91 89.33969999999999 111.613 10076 5038
N 1973.14 128.068 142.874 10077 5039
N 1973.94 128.604 143.44 10078 5039
N 1582.51 143.484 57.1517 10079 5040
N 1581.74 144.217 56.7978 10080 5040
N 2249.92 47.4386 130.83 10081 5041
N 2249.9 48.3102 131.531 10082 5041
N 1827.6 11.3877 105.393 10083 5042
N 1828.52 11.6494 105.976 10084 5042
N 1598.34 95.9413 68.5907 10085 5043
N 1598.24 96.3419 69.63160000000001 10086 5043
N 2094.64 44.1397 75.5926 10087 5044
N 2094.64 44.3719 74.4983 10088 5044
N 1852.58 10.166 68.8026 10089 5045
N 1852.81 10.9975 68.0926 10090 5045
N 2179.42 92.87309999999999 74.7431 10091 5046
N 2178.36 92.6186 74.42959999999999 10092 5046
N 2260.69 67.46299999999999 107.902 10093 5047
N 2261.16 67.4101 108.911 10094 5047
N 2189.34 47.3975 92.77549999999999 10095 5048
N 2188.39 47.7266 92.3171 10096 5048
N 1482.13 132.164 132.942 10097 5049
N 1481.11 132.018 132.511 10098 5049
N 2291.58 57.8731 27.2477 10099 5050
N 2291.48 57.8359 26.1287 10100 5050
N 1870.61 62.5288 5.41571 10101 5051
N 1869.74 63.1968 5.63215 10102 5051
N 2367.74 6.06793 107.081 10103 5052
N 2367.66 5.6838 108.133 10104 5052
N 1607.49 135.338 43.9699 10105 5053
N 1607.38 134.362 43.432 10106 5053
N 2120.7 21.2667 141.114 10107 5054
N 2121.28 21.9321 140.433 10108 5054
N 1853.1 73.7602 63.0167 10109 5055
N 1853.69 73.2871 63.8421 10110 5055
N 1675.08 80.3172 88.9192 10111 5056
N 1674.64 80.9757 88.1352 10112 5056
N 1473.77 48.726 95.2683 10113 5057
N 1472.94 48.0433 94.9776 10114 5057
N 1480.65 142.545 80.00960000000001 10115 5058
N 1479.61 142.159 79.9829 10116 5058
N 1683.16 7.864 66.251 10117 5059
N 1683.9 8.19041 67.0262 10118 5059
N 2105.44 37.5196 72.7666 10119 5060
N 2105.1 36.574 73.2653 10120 5060
N 1630.29 44.7874 29.4512 10121 5061
N 1629.6 45.517 28.9566 10122 5061
N 1585.22 37.3887 31.6999 10123 5062
N 1585.08 37.2834 32.8052 10124 5062
N 1845.08 17.6224 43.6309 10125 5063
N 1845.07 17.5953 44.7495 10126 5063
N 1469.97 100.592 71.7878 10127 5064
N 1469.9 101.714 71.8844 10128 5064
N 2059.84 8.31265 100.352 10129 5065
N 2060.13 9.36816 100.158 10130 5065
N 1601.82 38.2076 66.4701 10131 5066
N 1602.18 37.9642 67.5035 10132 5066
N 1490.36 83.6073 63.845 10133 5067
N 1490.44 84.5138 64.48520000000001 10134 5067
N 2009.14 0.875042 11.8981 10135 5068
N 2008.42 0.777273 12.7749 10136 5068
N 2160.03 96.5445 58.5239 10137 5069
N 2160.17 95.43210000000001 58.4056 10138 5069
N 1949.35 24.6267 36.0535 10139 5070
N 1949.92 24.4711 35.1017 10140 5070
N 1614.67 25.7096 39.4474 10141 5071
N 1615.38 26.4688 39.9045 10142 5071
N 1956.3 51.2654 128.723 10143 5072
N 1955.74 51.6857 129.58 10144 5072
N 1827.08 18.9342 3.3242 10145 5073
N 1826.25 19.4159 2.75008 10146 5073
N 1714.13 125.346 18.3131 10147 5074
N 1713.76 124.416 17.8237 10148 5074
N 1629.2 34.7236 28.746 10149 5075
N 1628.3 34.447 28.1385 10150 5075
N 1733.62 88.44450000000001 39.5007 10151 5076
N 1734.5 88.33320000000001 38.8299 10152 5076
N 2029.11 134.858 54.3675 10153 5077
N 2028.13 134.493 54.7615 10154 5077
N 1448.3 146.634 146.575 10155 5078
N 1447.52 147.324 147.011 10156 5078
N 1980.55 26.4968 57.3361 10157 5079
N 1979.75 26.3808 58.114 10158 5079
N 2014.02 72.9413 91.7542 10159 5080
N 2013.32 73.32980000000001 90.9717 10160 5080
N 1691.33 146.362 31.7181 10161 5081
N 1690.76 147.22 32.1442 10162 5081
N 1891.63 48.3654 46.466 10163 5082
N 1891.73 49.4018 46.8696 10164 5082
N 1981.3 46.9029 9.163539999999999 10165 5083
N 1980.37 46.4202 8.77131 10166 5083
N 1750.97 90.7724 118.009 10167 5084
N 1750.82 89.7272 118.375 10168 5084
N 1604.02 56.5908 56.3754 10169 5085
N 1603.11 57.2458 56.4626 10170 5085
N 1776.14 63.1505 9.196669999999999 10171 5086
N 1775.58 63.0767 10.1665 10172 5086
N 1916.05 21.7635 61.7349 10173 5087
N 1916.3 22.6109 61.0438 10174 5087
N 2052.59 71.66160000000001 31.3376 10175 5088
N 2052.77 71.67440000000001 30.2322 10176 5088
N 1804.36 21.6777 56.2657 10177 5089
N 1805.33 21.1261 56.1443 10178 5089
N 1961.7 102.943 107.952 10179 5090
N 1962.72 102.729 107.554 10180 5090
N 1718.75 111.872 57.9165 10181 5091
N 1718.44 111.044 57.2163 10182 5091
N 1802.06 109.663 113.546 10183 5092
N 1803 110.213 113.35 10184 5092
N 1857.31 144.137 125.798 10185 5093
N 1857.04 144.328 124.731 10186 5093
N 1548.48 98.5836 145.62 10187 5094
N 1548.39 99.3043 144.774 10188 5094
N 1697.54 142.929 73.12139999999999 10189 5095
N 1696.7 143.461 73.6438 10190 5095
N 1903.39 10.3482 126.089 10191 5096
N 1903.59 11.422 125.857 10192 5096
N 1908.42 3.04879 121.567 10193 5097
N 1907.64 3.83114 121.783 10194 5097
N 1843.26 65.039 113.079 10195 5098
N 1843.35 63.9211 113.15 10196 5098
N 1546.78 55.6877 53.0824 10197 5099
N 1547.59 56.4221 52.8695 10198 5099
N 1984.47 119.178 75.9611 10199 5100
N 1985.07 120.029 75.5446 10200 5100
N 1850.31 59.4372 78.9131 10201 5101
N 1849.57 59.6363 78.08839999999999 10202 5101
N 2419.61 69.3496 11.242 10203 5102
N 2418.82 70.14109999999999 11.1159 10204 5102
N 1417.18 1.33477 110.681 10205 5103
N 1417.43 2.10086 111.456 10206 5103
N 1624.18 30.615 128.826 10207 5104
N 1623.74 29.9396 129.599 10208 5104
N 1774.62 40.4591 2.75413 10209 5105
N 1774.79 40.5232 1.651 10210 5105
N 2133.1 41.7449 139.948 10211 5106
N 2134 42.0295 139.362 10212 5106
N 1664.61 79.20650000000001 136.815 10213 5107
N 1663.97 80.1271 136.941 10214 5107
N 1702.63 10.4363 9.94548 10215 5108
N 1702.37 9.687239999999999 10.7343 10216 5108
N 1811.14 91.8194 126.077 10217 5109
N 1810.01 91.7854 125.985 10218 5109
N 1698.88 63.2608 52.5437 10219 5110
N 1698.38 62.2542 52.5065 10220 5110
N 1551.36 126.424 46.4739 10221 5111
N 1552.09 127.292 46.4038 10222 5111
N 1843.14 145.587 84.6009 10223 5112
N 1842.74 144.953 85.44240000000001 10224 5112
N 1640.69 105.783 106.652 10225 5113
N 1641.7 105.78 106.184 10226 5113
N 2171.64 130.205 41.007 10227 5114
N 2172.11 131.185 41.2678 10228 5114
N 1599.04 36.8445 2.17022 10229 5115
N 1598.8 37.7596 2.79063 10230 5115
N 1813.49 14.1993 84.69289999999999 10231 5116
N 1812.9 14.8405 85.3895 10232 5116
N 2152.77 74.4096 69.1644 10233 5117
N 2152.51 75.075 68.331 10234 5117
N 1923.35 11.2313 49.135 10235 5118
N 1924.12 11.1987 48.3278 10236 5118
N 1697.77 119.08 34.2747 10237 5119
N 1696.97 118.298 34.3946 10238 5119
N 2091.12 5.20477 67.31619999999999 10239 5120
N 2090.91 5.46505 68.3907 10240 5120
N 2099.96 28.8544 3.4499 10241 5121
N 2100.2 29.3992 2.49747 10242 5121
N 1772.05 81.0213 102.616 10243 5122
N 1772.44 81.6178 103.475 10244 5122
N 1906.07 130.757 132.692 10245 5123
N 1906.97 130.113 132.834 10246 5123
N 1567.49 47.0098 125.677 10247 5124
N 1567.9 47.8941 125.116 10248 5124
N 1821.43 129.684 17.3387 10249 5125
N 1821.63 129.242 16.3279 10250 5125
N 2506.16 142.175 65.7782 10251 5126
N 2507.08 141.809 65.26909999999999 10252 5126
N 1885.37 28.5594 100.145 10253 5127
N 1885.81 28.1482 101.085 10254 5127
N 1912.27 121.956 10.2305 10255 5128
N 1911.89 121.534 11.2032 10256 5128
N 2166.79 96.31229999999999 59.2496 10257 5129
N 2165.95 96.3237 59.9925 10258 5129
N 1782.51 84.8163 55.8591 10259 5130
N 1781.66 85.0889 56.5368 10260 5130
N 2264.67 58.1842 22.6329 10261 5131
N 2264.85 58.6298 23.6462 10262 5131
N 2000.56 78.7668 80.09910000000001 10263 5132
N 2000.26 78.5377 79.0378 10264 5132
N 1676 73.0124 116.837 10265 5133
N 1675.1 72.34990000000001 116.872 10266 5133
N 2263.27 102.789 139.552 10267 5134
N 2263.75 103.764 139.811 10268 5134
N 1850.36 111.85 41.9759 10269 5135
N 1851.27 112.497 42.1149 10270 5135
N 1775.55 47.7829 144.497 10271 5136
N 1775.25 48.4866 143.68 10272 5136
N 1863.1 7.33399 131.23 10273 5137
N 1863.76 7.88649 130.527 10274 5137
N 2033.11 96.989 102.973 10275 5138
N 2033.75 96.0599 102.922 10276 5138
N 2000.62 111.885 137.436 10277 5139
N 2000.5 111.4 138.431 10278 5139
N 2121.38 132.349 103.979 10279 5140
N 2120.69 131.475 103.769 10280 5140
N 2113.2 34.3747 89.6183 10281 5141
N 2112.63 35.2456 90.01430000000001 10282 5141
N 1739.32 100.82 23.3087 10283 5142
N 1739.51 99.7128 23.3223 10284 5142
N 1673.27 17.7645 93.30840000000001 10285 5143
N 1672.29 17.6389 92.7884 10286 5143
N 1884.39 28.4594 96.291 10287 5144
N 1885.51 28.4377 96.4118 10288 5144
N 1957.65 97.78100000000001 84.7093 10289 5145
N 1957.45 97.099 85.5775 10290 5145
N 1722.74 110.654 135.815 10291 5146
N 1723.5 110.763 136.632 10292 5146
N 2028.75 50.255 31.3386 10293 5147
N 2027.7 49.8925 31.5377 10294 5147
N 2218.17 57.6432 32.3551 10295 5148
N 2218.85 57.0482 33.0151 10296 5148
N 2013.58 22.0322 85.2431 10297 5149
N 2013.43 21.0564 85.7617 10298 5149
N 1655.52 113.777 4.31449 10299 5150
N 1655.36 113.974 5.39945 10300 5150
N 1687.62 122.487 33.6847 10301 5151
N 1687.64 123.373 34.3678 10302 5151
N 1986.43 42.4112 0.262311 10303 5152
N 1986.9 43.3414 149.872 10304 5152
N 1733 64.9969 147.275 10305 5153
N 1733.33 65.9252 147.786 10306 5153
N 2271.14 104.486 43.8581 10307 5154
N 2271.2 103.401 43.5908 10308 5154
N 1719.66 109.875 125.511 10309 5155
N 1719.26 109.737 124.465 10310 5155
N 2068.59 83.0621 26.651 10311 5156
N 2069.15 82.5514 25.8281 10312 5156
N 1995.83 57.6236 144.038 10313 5157
N 1995.48 58.6632 144.293 10314 5157
N 2034.37 130.925 141.484 10315 5158
N 2033.75 131.293 140.635 10316 5158
N 1575.24 94.06610000000001 94.57859999999999 10317 5159
N 1574.36 93.65730000000001 95.12990000000001 10318 5159
N 2300.82 2.39445 22.478 10319 5160
N 2301.26 2.03302 23.4337 10320 5160
N 1688.43 86.89660000000001 4.87429 10321 5161
N 1687.87 86.01390000000001 4.49174 10322 5161
N 1912.23 55.3622 77.5942 10323 5162
N 1912.38 56.2726 76.9697 10324 5162
N 1683.98 140.729 110.488 10325 5163
N 1683.68 140.924 111.56 10326 5163
N 1981.26 6.05199 81.3779 10327 5164
N 1981.05 7.11831 81.108 10328 5164
N 1639.87 70.1776 96.6284 10329 5165
N 1639.48 69.9357 95.6065 10330 5165
N 1964.48 4.16492 62.1691 10331 5166
N 1964.62 3.74819 63.2017 10332 5166
N 2001.86 2.04769 145.942 10333 5167
N 2002.41 1.07824 146.096 10334 5167
N 1899.62 10.7182 83.7221 10335 5168
N 1900.58 11.1774 84.0265 10336 5168
N 1627.05 11.7953 39.3335 10337 5169
N 1627.16 11.5588 40.4127 10338 5169
N 1695.26 10.6609 6.77729 10339 5170
N 1694.28 10.2973 7.15408 10340 5170
N 1996.31 117.256 28.3978 10341 5171
N 1995.43 116.776 27.8993 10342 5171
N 2146.78 127.906 58.1528 10343 5172
N 2145.71 128.249 58.2622 10344 5172
N 1457.48 79.53270000000001 116.753 10345 5173
N 1457.99 78.7145 116.189 10346 5173
N 2281.98 132.518 129.422 10347 5174
N 2282.41 132.761 128.423 10348 5174
N 1861.96 38.5518 120.558 10349 5175
N 1862.84 38.7226 119.886 10350 5175
N 2188.32 141.361 126.92 10351 5176
N 2188.19 140.924 125.898 10352 5176
N 1779.14 42.6426 100.201 10353 5177
N 1778.29 42.317 99.5491 10354 5177
N 1817.59 80.9607 109.293 10355 5178
N 1817.88 82.00579999999999 109.016 10356 5178
N 1832.28 103.693 25.447 10357 5179
N 1833.19 104.105 24.9365 10358 5179
N 1802.87 69.6999 142.704 10359 5180
N 1802.49 69.7501 141.65 10360 5180
N 1473.22 84.7676 61.0503 10361 5181
N 1473.86 83.95569999999999 61.4503 10362 5181
N 2056.9 60.0535 11.483 10363 5182
N 2056.08 59.894 10.7397 10364 5182
N 1728.3 72.583 61.6711 10365 5183
N 1727.9 73.6234 61.7637 10366 5183
N 2571.86 42.0298 22.3307 10367 5184
N 2570.82 42.4422 22.2327 10368 5184
N 1660.04 107.981 76.8419 10369 5185
N 1660.66 108.74 76.3169 10370 5185
N 2142.28 20.9666 147.189 10371 5186
N 2142.98 20.1335 147.456 10372 5186
N 1528.03 50.6865 53.4601 10373 5187
N 1527.92 50.4744 54.5515 10374 5187
N 1817.73 147.653 59.239 10375 5188
N 1817.7 147.905 58.1557 10376 5188
N 1472.98 41.1129 1.2238 10377 5189
N 1473.87 40.4487 1.11516 10378 5189
N 2124.1 98.9218 36.2819 10379 5190
N 2123.42 99.7762 36.0572 10380 5190
N 1927.9 82.5851 22.5541 10381 5191
N 1928.68 83.1343 21.9668 10382 5191
N 1645.42 37.4236 146.474 10383 5192
N 1646.15 36.5761 146.575 10384 5192
N 1657.62 82.76560000000001 98.7816 10385 5193
N 1657.87 83.6536 99.41079999999999 10386 5193
N 2066.99 26.198 21.8867 10387 5194
N 2066.3 25.5372 21.2893 10388 5194
N 1995.85 144.352 15.4296 10389 5195
N 1996.91 144.051 15.2135 10390 5195
N 1772.25 128.241 25.2053 10391 5196
N 1771.5 127.872 24.4589 10392 5196
N 2056.92 39.5024 141.536 10393 5197
N 2057.05 40.1074 140.604 10394 5197
N 2068.71 140.66 46.1034 10395 5198
N 2068.54 139.691 45.5939 10396 5198
N 2109.81 139.18 121.522 10397 5199
N 2110.89 139.268 121.716 10398 5199
N 1440.85 123.548 10.8903 10399 5200
N 1440.62 123.394 11.9707 10400 5200
N 1710.4 50.3864 2.11517 10401 5201
N 1711.34 50.9938 1.99974 10402 5201
N 1685.71 31.4105 128.361 10403 5202
N 1685.51 32.1923 127.594 10404 5202
N 1963.81 34.3828 91.73269999999999 10405 5203
N 1962.71 34.4745 91.8501 10406 5203
N 1568.4 144.382 50.1607 10407 5204
N 1569.14 144.242 50.9788 10408 5204
N 2241.75 22.5313 72.0658 10409 5205
N 2240.69 22.6402 72.4049 10410 5205
N 2180.3 61.9472 55.3406 10411 5206
N 2180.89 62.8865 55.1923 10412 5206
N 2079.77 137.161 80.9696 10413 5207
N 2080.06 137.001 82.038 10414 5207
N 1913.56 107.271 101.178 10415 5208
N 1913.18 107.85 100.295 10416 5208
N 1755.45 86.59099999999999 112.474 10417 5209
N 1756.31 86.6649 113.176 10418 5209
N 1664.04 32.2057 60.6351 10419 5210
N 1664.65 31.4366 61.1669 10420 5210
N 1567.92 117.663 45.6876 10421 5211
N 1568.48 116.707 45.7833 10422 5211
N 2338.71 75.8794 148.109 10423 5212
N 2339.18 76.6803 147.476 10424 5212
N 1910.51 101.354 35.4512 10425 5213
N 1910.32 101.184 36.5495 10426 5213
N 1827.9 138.574 100.815 10427 5214
N 1828.35 139.514 101.201 10428 5214
N 1959.9 98.09050000000001 76.67789999999999 10429 5215
N 1960.11 97.6897 75.6502 10430 5215
N 1384.46 77.0303 30.7919 10431 5216
N 1385.25 77.6568 31.2713 10432 5216
N 1575 121.017 79.81740000000001 10433 5217
N 1574.83 119.99 79.4132 10434 5217
N 2257.93 5.27559 130.736 10435 5218
N 2258 5.59131 129.662 10436 5218
N 1788.26 52.384 148.647 10437 5219
N 1788.75 52.339 147.641 10438 5219
N 1872.32 139.931 55.9471 10439 5220
N 1873.02 140.173 55.0991 10440 5220
N 1944.27 82.8694 89.0384 10441 5221
N 1944.46 81.8228 89.3814 10442 5221
N 2367.92 120.447 38.1338 10443 5222
N 2367.08 120.338 37.4098 10444 5222
N 1873.68 38.3952 68.476 10445 5223
N 1873.55 39.2682 67.78019999999999 10446 5223
N 2309.88 44.2483 140.702 10447 5224
N 2309.63 45.3247 140.495 10448 5224
N 2056.69 147.834 6.376 10449 5225
N 2055.68 147.354 6.40328 10450 5225
N 1963.29 25.9604 17.5349 10451 5226
N 1964.3 25.7318 17.1077 10452 5226
N 2200.11 94.41370000000001 26.2351 10453 5227
N 2199.82 95.4393 26.5759 10454 5227
N 1465.7 135.885 89.69799999999999 10455 5228
N 1465.32 135.99 90.74939999999999 10456 5228
N 1387.09 45.3495 8.32405 10457 5229
N 1387.3 44.4179 8.909470000000001 10458 5229
N 1923.57 77.1653 142.078 10459 5230
N 1922.98 77.9288 141.515 10460 5230
N 2030.06 7.087 96.2867 10461 5231
N 2030.15 6.3309 95.4682 10462 5231
N 1954.9 117.571 115.681 10463 5232
N 1955.26 117.635 114.621 10464 5232
N 1759.54 83.95740000000001 36.5049 10465 5233
N 1759.66 83.3356 35.5973 10466 5233
N 2231.06 52.2091 12.0596 10467 5234
N 2231.68 51.2549 12.0924 10468 5234
N 1779.61 117.6 41.8484 10469 5235
N 1780.36 118.346 41.4834 10470 5235
N 1823.74 76.3503 41.107 10471 5236
N 1823.42 75.34310000000001 41.4763 10472 5236
N 1905.33 102.243 82.32250000000001 10473 5237
N 1904.4 101.989 81.7483 10474 5237
N 2128.59 48.4751 147.068 10475 5238
N 2129.54 48.0263 146.649 10476 5238
N 2096.9 6.86613 84.6155 10477 5239
N 2097.61 7.73513 84.6305 10478 5239
N 1747.19 145.989 78.4229 10479 5240
N 1747.12 146.629 77.5189 10480 5240
N 1822.05 91.161 17.8367 10481 5241
N 1821.15 90.5091 17.7155 10482 5241
N 1736.01 126.186 126.526 10483 5242
N 1736.76 125.753 125.82 10484 5242
N 1613.84 106.916 133.001 10485 5243
N 1613.6 107.573 132.143 10486 5243
N 1531.79 12.7331 132.674 10487 5244
N 1531.75 12.1008 133.598 10488 5244
N 1847.2 6.56048 67.58880000000001 10489 5245
N 1846.58 7.44162 67.2968 10490 5245
N 1548.21 141.379 132.95 10491 5246
N 1549.01 140.752 132.481 10492 5246
N 1726.09 62.0545 1.49779 10493 5247
N 1725.29 62.1601 2.26846 10494 5247
N 2198.18 108.593 131.798 10495 5248
N 2198.63 107.908 132.552 10496 5248
N 1649.46 56.8365 52.234 10497 5249
N 1649.21 55.8908 51.6959 10498 5249
N 2244.27 75.6691 93.67870000000001 10499 5250
N 2245.12 75.6071 92.9623 10500 5250
N 2510.88 82.7465 102.54 10501 5251
N 2511.23 83.5048 101.796 10502 5251
N 2081.55 41.7562 70.3878 10503 5252
N 2080.83 42.5332 70.7595 10504 5252
N 1621.55 7.83126 129.95 10505 5253
N 1621.49 8.73498 130.609 10506 5253
N 1890.27 9.96429 36.6847 10507 5254
N 1889.69 10.8968 36.8976 10508 5254
N 1715.3 146.71 72.6883 10509 5255
N 1714.2 146.775 72.8935 10510 5255
N 1789.2 83.74379999999999 66.2478 10511 5256
N 1789.1 83.87569999999999 67.3549 10512 5256
N 1437.95 78.56140000000001 54.793 10513 5257
N 1438.52 78.47580000000001 55.7715 10514 5257
N 2427.52 41.0481 42.9136 10515 5258
N 2427.26 41.0861 43.9905 10516 5258
N 1606.26 47.439 110.463 10517 5259
N 1606.62 46.9541 109.51 10518 5259
N 1754.9 110.242 1.79253 10519 5260
N 1755.03 110.339 0.688365 10520 5260
N 1716.44 144.449 46.5421 10521 5261
N 1717.13 145.183 46.0269 10522 5261
N 1768.99 100.549 114.89 10523 5262
N 1770.01 100.55 115.351 10524 5262
N 1751.58 4.03739 31.5195 10525 5263
N 1750.97 4.36468 30.6456 10526 5263
N 2448.57 139.308 9.271420000000001 10527 5264
N 2448.5 139.53 8.17226 10528 5264
N 2005.96 77.4528 21.1133 10529 5265
N 2005.49 77.17959999999999 22.0866 10530 5265
N 1994.9 27.548 103.236 10531 5266
N 1993.92 27.3117 102.725 10532 5266
N 1554.03 36.5367 49.4452 10533 5267
N 1553.17 37.0337 48.9275 10534 5267
N 2043.99 61.7667 43.9566 10535 5268
N 2043.23 62.5714 43.7233 10536 5268
N 1681.9 23.3934 47.8999 10537 5269
N 1682.81 23.7407 47.3276 10538 5269
N 2110.54 13.4352 95.4477 10539 5270
N 2110.32 12.4965 96.0121 10540 5270
N 1802.89 107.453 8.676780000000001 10541 5271
N 1803.54 106.548 8.62027 10542 5271
N 1884.81 94.4158 7.65747 10543 5272
N 1884.72 95.44280000000001 7.22519 10544 5272
N 1512.9 83.4421 47.0975 10545 5273
N 1512.69 82.708 46.2777 10546 5273
N 1698.83 38.4634 121.214 10547 5274
N 1697.84 38.0004 121.002 10548 5274
N 2016.78 38.6465 132.296 10549 5275
N 2015.78 39.1449 132.353 10550 5275
N 1735.34 0.755404 31.0651 10551 5276
N 1734.45 1.42611 31.226 10552 5276
N 2155.14 49.6977 59.9351 10553 5277
N 2155.79 48.8214 59.6864 10554 5277
N 1827.85 52.9001 66.7496 10555 5278
N 1828.59 52.1574 67.15560000000001 10556 5278
N 1713.76 15.796 61.1941 10557 5279
N 1713.18 16.6974 61.4926 10558 5279
N 1466.22 50.1724 67.0672 10559 5280
N 1466.99 49.4306 66.7535 10560 5280
N 2170.2 34.5788 22.7464 10561 5281
N 2170.83 34.3594 21.8394 10562 5281
N 2091.27 65.4978 111.558 10563 5282
N 2091.71 66.468 111.224 10564 5282
N 2298 69.6551 86.4105 10565 5283
N 2298.76 68.9945 85.9175 10566 5283
N 2372.5 147.316 53.8907 10567 5284
N 2371.43 146.984 53.9362 10568 5284
N 1877.24 111.825 147.929 10569 5285
N 1876.34 111.608 148.564 10570 5285
N 1856.42 97.1687 108.681 10571 5286
N 1855.93 97.1093 107.674 10572 5286
N 2043.5 34.0189 62.3295 10573 5287
N 2044.04 34.8639 62.835 10574 5287
N 1998.46 105.067 145.159 10575 5288
N 1998.72 104.992 144.077 10576 5288
N 1523.36 134.937 60.8363 10577 5289
N 1523.07 135.704 61.5898 10578 5289
N 2523.3 4.56539 58.7608 10579 5290
N 2523.85 5.47562 59.1048 10580 5290
N 1762.53 141.45 7.67669 10581 5291
N 1762.76 140.877 8.605689999999999 10582 5291
N 2227.32 126.81 97.78149999999999 10583 5292
N 2226.48 127.373 98.26439999999999 10584 5292
N 1744.17 66.72450000000001 31.169 10585 5293
N 1743.44 67.4736 30.7861 10586 5293
N 2167.66 139.859 54.9689 10587 5294
N 2166.8 140.329 55.4844 10588 5294
N 2105.5 140.68 1.4477 10589 5295
N 2105.13 141.689 1.11084 10590 5295
N 2455.05 18.4823 87.11450000000001 10591 5296
N 2453.93 18.3662 87.1399 10592 5296
N 2157.11 44.0628 66.1302 10593 5297
N 2158.08 43.9127 65.58629999999999 10594 5297
N 1878.59 5.29152 143.98 10595 5298
N 1878.79 4.67492 144.893 10596 5298
N 1867.68 143.296 96.86199999999999 10597 5299
N 1867.96 143.695 97.87569999999999 10598 5299
N 2504.22 62.2085 108.744 10599 5300
N 2505.01 62.2452 107.974 10600 5300
N 1554.27 96.83159999999999 109.242 10601 5301
N 1555.3 96.7731 108.815 10602 5301
N 1712.4 27.2187 49.8015 10603 5302
N 1712.49 26.1822 50.2031 10604 5302
N 2058.73 135.925 66.4182 10605 5303
N 2059.09 136.717 65.7132 10606 5303
N 1609.84 54.4851 145.233 10607 5304
N 1610 55.1173 146.148 10608 5304
N 2395.69 143.287 104.654 10609 5305
N 2394.61 143.205 104.9 10610 5305
N 1921.14 147.928 68.48609999999999 10611 5306
N 1920.52 148.858 68.4616 10612 5306
N 2367.38 48.7128 6.01511 10613 5307
N 2366.41 48.2498 6.32774 10614 5307
N 2490.19 7.35131 109.861 10615 5308
N 2490.61 8.28182 110.301 10616 5308
N 1960.81 128.884 11.7395 10617 5309
N 1960.65 127.813 12.0224 10618 5309
N 2190.84 141.912 49.4119 10619 5310
N 2190.27 141.489 50.2714 10620 5310
N 2176.22 131.333 55.9152 10621 5311
N 2175.49 131.036 56.7129 10622 5311
N 1829.34 64.26009999999999 123.353 10623 5312
N 1828.68 63.3679 123.258 10624 5312
N 2046.07 74.8963 70.02500000000001 10625 5313
N 2046.29 74.8973 71.11960000000001 10626 5313
N 2296.1 68.9071 92.1452 10627 5314
N 2297.19 68.7364 92.0262 10628 5314
N 1809.59 109.978 13.9239 10629 5315
N 1809.89 110.75 14.6779 10630 5315
N 1816.07 3.01344 53.6072 10631 5316
N 1816.19 3.96499 54.1863 10632 5316
N 2279.22 23.1602 46.1903 10633 5317
N 2278.48 23.9137 46.5849 10634 5317
N 1902.16 67.8605 38.8642 10635 5318
N 1902.62 68.145 39.8486 10636 5318
N 2219.33 25.7912 6.81443 10637 5319
N 2219.07 24.7684 6.44985 10638 5319
N 2131.8 117.481 24.2726 10639 5320
N 2132.38 117.407 23.332 10640 5320
N 1889.5 110.995 142.875 10641 5321
N 1889.64 111.15 141.778 10642 5321
N 2119.75 11.2217 149.963 10643 5322
N 2118.69 11.4483 149.716 10644 5322
N 1991.34 147.506 53.7769 10645 5323
N 1990.88 147.536 54.7874 10646 5323
N 2279.68 141.873 133.141 10647 5324
N 2279.72 141.52 134.2 10648 5324
N 2393.97 113.478 95.12269999999999 10649 5325
N 2392.91 113.557 94.7864 10650 5325
N 2168.7 52.6891 114.754 10651 5326
N 2169.65 52.5676 114.158 10652 5326
N 1890.83 52.2359 63.2126 10653 5327
N 1890.55 53.23 62.7835 10654 5327
N 1876.75 109.313 10.1559 10655 5328
N 1876.14 109.492 9.23814 10656 5328
N 1627.44 22.08 101.094 10657 5329
N 1627.31 21.3245 100.269 10658 5329
N 2287.8 19.5171 44.9324 10659 5330
N 2288.12 19.862 45.942 10660 5330
N 1652.48 72.1324 3.81128 10661 5331
N 1653.03 71.5295 4.58372 10662 5331
N 2126.44 142.712 11.1684 10663 5332
N 2125.75 141.972 10.6677 10664 5332
N 2300.54 23.2927 100.156 10665 5333
N 2301.52 22.7913 100.404 10666 5333
N 1824.55 50.6404 13.3276 10667 5334
N 1824.95 51.6616 13.4667 10668 5334
N 1894.16 147.632 117.782 10669 5335
N 1894.18 146.683 118.376 10670 5335
N 2235.87 66.8659 31.4023 10671 5336
N 2236.08 66.538 32.4571 10672 5336
N 2002.01 120.895 127.025 10673 5337
N 2001.9 121.163 128.108 10674 5337
N 1927.19 12.3134 18.0977 10675 5338
N 1926.88 12.9434 18.9671 10676 5338
N 2244.16 126.105 121.92 10677 5339
N 2244.61 125.156 122.262 10678 5339
N 1879.34 34.7531 69.20740000000001 10679 5340
N 1878.54 33.9632 69.24550000000001 10680 5340
N 1763.29 83.8717 113.264 10681 5341
N 1763.52 84.5377 112.401 10682 5341
N 1994.97 15.889 130.361 10683 5342
N 1995.57 16.6047 131.01 10684 5342
N 1545.23 82.1704 22.8451 10685 5343
N 1545.93 82.9524 23.2446 10686 5343
N 1591.39 59.6106 67.828 10687 5344
N 1590.53 58.9157 68.0213 10688 5344
N 1722.26 35.9014 97.5506 10689 5345
N 1722.18 36.9848 97.7906 10690 5345
N 2133.05 69.8927 85.6721 10691 5346
N 2133.42 70.3847 86.60720000000001 10692 5346
N 1783.09 126.627 103.229 10693 5347
N 1783.7 127.557 103.128 10694 5347
N 1994.82 42.1289 14.2724 10695 5348
N 1994.51 42.2911 15.3422 10696 5348
N 2345.77 118.181 134.099 10697 5349
N 2345.42 118.914 134.865 10698 5349
N 1894.1 74.547 130.796 10699 5350
N 1894.83 74.57429999999999 129.961 10700 5350
N 2228.74 123.147 127.386 10701 5351
N 2228.11 123.724 128.113 10702 5351
N 1978.36 107.375 63.635 10703 5352
N 1978.21 108.399 64.0896 10704 5352
N 2065.77 89.36669999999999 102.194 10705 5353
N 2065.56 90.3866 101.742 10706 5353
N 2365.24 117.565 123.192 10707 5354
N 2364.56 118.395 122.851 10708 5354
N 1675.56 113.031 67.1039 10709 5355
N 1675.43 114.093 66.81319999999999 10710 5355
N 2303.57 31.443 78.21980000000001 10711 5356
N 2304.38 32.031 78.72029999999999 10712 5356
N 1870.66 28.0273 21.7421 10713 5357
N 1870.43 28.9312 22.3658 10714 5357
N 2168.05 118.933 88.26609999999999 10715 5358
N 2167.72 118.067 87.6288 10716 5358
N 1859.64 23.1742 47.328 10717 5359
N 1859.12 24.1513 47.1343 10718 5359
N 2190.58 120.46 59.4264 10719 5360
N 2191.23 121.301 59.0487 10720 5360
N 2259.22 121.881 95.61969999999999 10721 5361
N 2259.88 122.003 94.72369999999999 10722 5361
N 2032.5 131.825 27.8434 10723 5362
N 2031.51 131.66 27.3465 10724 5362
N 2195.24 101.673 112.045 10725 5363
N 2194.6 100.775 112.215 10726 5363
N 1807.16 130.369 81.8099 10727 5364
N 1807.94 130.807 81.1345 10728 5364
N 2553.6 108.864 107.725 10729 5365
N 2554.4 108.095 107.773 10730 5365
N 2138.62 104.351 49.7521 10731 5366
N 2138.12 104.999 50.5009 10732 5366
N 2401.8 123.936 89.7381 10733 5367
N 2401.69 124.012 90.85290000000001 10734 5367
N 1596.61 58.4345 54.0373 10735 5368
N 1596.23 58.2497 53.0053 10736 5368
N 1882.48 97.4464 115.252 10737 5369
N 1882.62 97.43819999999999 114.151 10738 5369
N 1712.49 48.0839 74.6593 10739 5370
N 1711.47 48.0024 75.1123 10740 5370
N 1930.09 111.103 91.9066 10741 5371
N 1931.09 111.102 92.39409999999999 10742 5371
N 1939.24 93.88160000000001 115.479 10743 5372
N 1938.74 94.56140000000001 116.224 10744 5372
N 2483.89 75.5197 84.32680000000001 10745 5373
N 2483.66 75.92740000000001 83.31359999999999 10746 5373
N 2755.7 49.118 82.5675 10747 5374
N 2755.57 48.4003 81.709 10748 5374
N 2177.47 92.6609 78.3203 10749 5375
N 2177.36 93.7248 77.9879 10750 5375
N 2103.16 69.18940000000001 109.444 10751 5376
N 2102.86 69.07129999999999 110.517 10752 5376
N 1790.14 132.336 102.685 10753 5377
N 1790.14 132.908 101.716 10754 5377
N 1852.2 128.15 29.7906 10755 5378
N 1852.87 127.355 29.3745 10756 5378
N 2025.08 72.43519999999999 134.396 10757 5379
N 2024.79 72.35469999999999 135.475 10758 5379
N 2156.69 27.8857 92.3103 10759 5380
N 2156.28 26.8525 92.1855 10760 5380
N 2091.31 104.884 107.003 10761 5381
N 2090.68 105.209 107.867 10762 5381
N 2020.43 52.5677 38.3653 10763 5382
N 2021.05 51.6338 38.3696 10764 5382
N 2325.27 79.8439 113.74 10765 5383
N 2326.03 79.19710000000001 113.225 10766 5383
N 1900.76 57.5837 133.425 10767 5384
N 1900.31 57.873 132.439 10768 5384
N 1950.56 13.6098 132.203 10769 5385
N 1950.48 14.5871 132.76 10770 5385
N 2305.42 44.6474 54.8251 10771 5386
N 2306.05 45.2359 54.1112 10772 5386
N 1922.79 141.484 7.47165 10773 5387
N 1923.51 142.095 8.06194 10774 5387
N 2143.43 112.15 129.991 10775 5388
N 2144.47 111.816 130.254 10776 5388
N 2034.55 70.4365 54.3845 10777 5389
N 2034.21 71.2253 55.0977 10778 5389
N 1967.01 109.975 12.1298 10779 5390
N 1965.99 109.557 11.9367 10780 5390
N 2089.53 100.542 43.4812 10781 5391
N 2088.94 100.007 42.6908 10782 5391
N 1983.14 105.662 51.8535 10783 5392
N 1983.83 105.557 52.7265 10784 5392
N 2000.12 100.052 48.6139 10785 5393
N 2000.94 99.6777 49.276 10786 5393
N 1853.99 130.132 43.5951 10787 5394
N 1854.59 130.865 43.0165 10788 5394
N 1758.05 6.54788 27.6095 10789 5395
N 1758.31 7.59389 27.9374 10790 5395
N 1854.9 0.29035 34.296 10791 5396
N 1855.48 149.525 34.8999 10792 5396
N 1775.88 122.256 42.5737 10793 5397
N 1775.92 121.27 43.1171 10794 5397
N 2409 95.36190000000001 93.2457 10795 5398
N 2408.75 94.41459999999999 92.71469999999999 10796 5398
N 1826.1 140.758 53.2376 10797 5399
N 1827.1 140.244 53.2289 10798 5399
N 2238.05 88.25749999999999 48.2955 10799 5400
N 2236.98 87.9776 48.0868 10800 5400
N 1602.9 144.511 127.584 10801 5401
N 1602.48 143.475 127.626 10802 5401
N 1948.57 143.441 37.4441 10803 5402
N 1947.72 144.174 37.4596 10804 5402
N 1852.07 73.79730000000001 73.26909999999999 10805 5403
N 1851.88 72.9345 73.9635 10806 5403
N 2109 11.3221 67.77679999999999 10807 5404
N 2110.11 11.4287 67.7931 10808 5404
N 1828.66 121.586 129.135 10809 5405
N 1829.15 120.847 128.441 10810 5405
N 1996.5 55.0185 122.829 10811 5406
N 1996.66 55.2483 123.897 10812 5406
N 1846.35 11.2392 91.0817 10813 5407
N 1846.78 12.0926 91.6679 10814 5407
N 1993.51 65.1818 30.4822 10815 5408
N 1993.87 66.24169999999999 30.5459 10816 5408
N 2042.45 114.063 14.1337 10817 5409
N 2042.54 114.883 13.3765 10818 5409
N 2192.85 98.9414 85.5121 10819 5410
N 2193.79 98.66800000000001 84.95910000000001 10820 5410
N 2007.06 13.2954 58.3681 10821 5411
N 2007.55 12.9527 59.3188 10822 5411
N 2134.81 58.775 132.415 10823 5412
N 2134.28 57.9714 132.996 10824 5412
N 1923.44 26.8063 87.505 10825 5413
N 1922.71 26.3718 86.7807 10826 5413
N 1829.4 87.79770000000001 32.9407 10827 5414
N 1829.36 87.5866 34.0386 10828 5414
N 2230.51 87.9254 38.4301 10829 5415
N 2230.51 88.9764 38.0493 10830 5415
N 1959.24 93.2092 22.087 10831 5416
N 1960.01 92.4127 22.0083 10832 5416
N 1973.34 149.612 24.4976 10833 5417
N 1972.65 149.828 25.36 10834 5417
N 1504.45 61.8966 85.1741 10835 5418
N 1504.95 62.8917 85.012 10836 5418
N 1737.34 94.92570000000001 114.268 10837 5419
N 1736.26 95.1855 114.493 10838 5419
N 2546.05 133.96 4.18417 10839 5420
N 2545.96 134.654 5.04285 10840 5420
N 2176.35 5.45005 96.2269 10841 5421
N 2177.06 6.20224 96.6641 10842 5421
N 1898.98 38.7908 110.266 10843 5422
N 1900.01 38.9178 109.828 10844 5422
N 2023 120.414 125.362 10845 5423
N 2023.19 121.268 126.075 10846 5423
N 2115.04 135.484 41.9378 10847 5424
N 2114.59 136.014 41.0632 10848 5424
N 2326.8 0.050501 81.0638 10849 5425
N 2326.38 1.01774 80.744 10850 5425
N 2481.81 0.717996 34.646 10851 5426
N 2480.69 0.778159 34.5579 10852 5426
N 1718.46 113.485 96.4432 10853 5427
N 1718.18 114.001 97.4007 10854 5427
N 1901.29 112.617 59.5373 10855 5428
N 1900.82 113.515 59.9728 10856 5428
N 2086.05 136.955 86.6816 10857 5429
N 2087.03 137.165 86.1777 10858 5429
N 1846.14 127.008 69.3533 10859 5430
N 1846.22 127.52 70.34569999999999 10860 5430
N 1796.08 32.0696 82.1037 10861 5431
N 1795.31 31.2623 82.1932 10862 5431
N 1901.09 59.6973 46.2119 10863 5432
N 1901.55 60.5677 45.712 10864 5432
N 1880.64 107.008 66.9939 10865 5433
N 1881.43 106.895 66.2026 10866 5433
N 2097.25 55.2534 92.0159 10867 5434
N 2096.83 56.2574 91.6895 10868 5434
N 1620.38 84.0745 111.75 10869 5435
N 1619.47 83.5295 111.417 10870 5435
N 2029.07 121.281 116.094 10871 5436
N 2028.42 121.661 115.268 10872 5436
N 1916.07 9.79805 28.5089 10873 5437
N 1915.6 10.8024 28.3741 10874 5437
N 1858.84 69.4522 124.424 10875 5438
N 1857.89 69.69459999999999 124.983 10876 5438
N 1957.12 21.9525 111.338 10877 5439
N 1958.04 22.3396 110.814 10878 5439
N 2124.07 132.603 79.0014 10879 5440
N 2123.82 133.511 78.4036 10880 5440
N 2659.1 26.9672 81.28440000000001 10881 5441
N 2659.8 26.683 80.46080000000001 10882 5441
N 1957.51 111.244 25.9209 10883 5442
N 1958.47 111.136 26.4663 10884 5442
N 1596.63 137.778 58.5318 10885 5443
N 1596.38 136.752 58.8662 10886 5443
N 2209.98 108.828 68.78440000000001 10887 5444
N 2210.84 108.22 69.1618 10888 5444
N 2029.17 50.687 91.43089999999999 10889 5445
N 2028.7 51.4533 92.1105 10890 5445
N 2419.04 79.65860000000001 62.2805 10891 5446
N 2419.94 80.29510000000001 62.1065 10892 5446
N 2513.37 138.684 51.7 10893 5447
N 2512.37 138.773 52.1842 10894 5447
N 1975.71 133.674 32.6198 10895 5448
N 1976.82 133.594 32.7461 10896 5448
N 1848.25 79.1335 62.1448 10897 5449
N 1848.34 79.8968 61.3326 10898 5449
N 2378.95 44.7508 117.498 10899 5450
N 2377.88 44.5062 117.719 10900 5450
N 1897.16 107.534 96.3655 10901 5451
N 1898.08 107.856 96.89790000000001 10902 5451
N 1759.32 14.7294 32.8491 10903 5452
N 1759.65 14.093 31.9963 10904 5452
N 2098.12 99.0633 143.014 10905 5453
N 2098.64 98.1983 142.53 10906 5453
N 2107.6 22.3238 116.358 10907 5454
N 2106.68 21.8529 116.795 10908 5454
N 1932.3 101.74 127.772 10909 5455
N 1933.3 101.404 128.161 10910 5455
N 2091.84 110.236 36.2409 10911 5456
N 2092.81 109.916 36.7064 10912 5456
N 1957.39 78.5993 146.678 10913 5457
N 1957.26 78.456 145.576 10914 5457
N 2071.79 102.921 21.8522 10915 5458
N 2071.11 103.809 21.8905 10916 5458
N 2102.05 72.6977 105.819 10917 5459
N 2101.36 73.5766 105.802 10918 5459
N 1512.33 66.3712 118.139 10919 5460
N 1512.48 67.0008 119.052 10920 5460
N 2538.64 45.4026 51.6227 10921 5461
N 2539.66 45.1377 51.2675 10922 5461
N 2192.47 60.2414 111.139 10923 5462
N 2191.4 59.9566 111.351 10924 5462
N 1825.79 140.708 77.1443 10925 5463
N 1825.91 141.393 76.26519999999999 10926 5463
N 1648.35 38.7364 37.5165 10927 5464
N 1648.24 38.7428 36.3964 10928 5464
N 2209.69 139.061 36.5905 10929 5465
N 2210.47 138.469 36.0398 10930 5465
N 1934.15 146.347 121.022 10931 5466
N 1933.77 145.458 120.47 10932 5466
N 2097.95 111.848 49.4427 10933 5467
N 2099.01 111.956 49.797 10934 5467
N 1838.2 46.3053 132.888 10935 5468
N 1837.11 46.4143 133.123 10936 5468
N 2176.57 25.3629 47.4292 10937 5469
N 2175.55 25.7327 47.6844 10938 5469
N 1901.04 41.9492 105.631 10939 5470
N 1900.01 42.101 105.259 10940 5470
N 1781.34 58.7976 110.903 10941 5471
N 1780.65 58.0104 111.291 10942 5471
N 1905.13 119.986 30.4567 10943 5472
N 1905.55 119.81 31.4799 10944 5472
N 2163.15 100.338 18.044 10945 5473
N 2163.09 99.6249 18.9064 10946 5473
N 1585.23 78.46639999999999 47.9612 10947 5474
N 1586.09 77.7804 47.7625 10948 5474
N 2134.86 75.33540000000001 76.6087 10949 5475
N 2133.98 75.9319 76.26560000000001 10950 5475
N 1931.65 80.3293 79.6245 10951 5476
N 1930.53 80.285 79.5663 10952 5476
N 2652.52 133.254 24.0071 10953 5477
N 2652.15 132.783 23.0535 10954 5477
N 1773.52 98.83799999999999 124.127 10955 5478
N 1773.26 98.39060000000001 125.127 10956 5478
N 2253.54 121.957 119.024 10957 5479
N 2253.58 121.006 119.63 10958 5479
N 1682.42 129.337 144.797 10959 5480
N 1682.07 128.297 144.585 10960 5480
N 1964.84 21.498 112.578 10961 5481
N 1963.72 21.3588 112.658 10962 5481
N 1762.89 35.0053 110.072 10963 5482
N 1762.4 35.6411 110.856 10964 5482
N 1992.37 127.499 148.634 10965 5483
N 1993.39 127.255 148.213 10966 5483
N 2982.61 8.52046 25.0129 10967 5484
N 2982.85 9.42778 24.4152 10968 5484
N 1799.79 113.234 19.883 10969 5485
N 1800.3 114.232 19.9498 10970 5485
N 1697.58 117.671 39.4963 10971 5486
N 1697.56 118.674 39.0095 10972 5486
N 2296.5 99.10550000000001 106.465 10973 5487
N 2295.46 99.4629 106.244 10974 5487
N 1920.84 130.343 124.777 10975 5488
N 1921.28 130.267 125.791 10976 5488
N 2212.17 147.919 149.134 10977 5489
N 2212.08 147.991 0.26162 10978 5489
N 1719.04 129.903 123.11 10979 5490
N 1720.02 129.505 122.747 10980 5490
N 2031.25 9.09784 91.6374 10981 5491
N 2030.71 8.12396 91.6516 10982 5491
N 1880.79 120.243 68.1998 10983 5492
N 1881.14 119.713 67.2621 10984 5492
N 2246.82 55.1286 15.9088 10985 5493
N 2246.63 55.4083 14.8399 10986 5493
N 1599.25 95.17749999999999 106.366 10987 5494
N 1599.81 94.8982 105.444 10988 5494
N 1998.02 17.4684 134.646 10989 5495
N 1997.58 18.1097 135.447 10990 5495
N 2335.34 106.135 86.5643 10991 5496
N 2335.29 107.112 87.1144 10992 5496
N 2088.3 1.61956 147.593 10993 5497
N 2088.7 1.24679 146.631 10994 5497
N 2190.81 131.35 109.023 10995 5498
N 2190.17 131.345 108.127 10996 5498
N 1660.94 111.062 110.779 10997 5499
N 1660.74 111.596 109.807 10998 5499
N 2176.23 24.4232 16.2779 10999 5500
N 2177.24 24.0022 16.4758 11000 5500
N 1802.49 0.904262 90.8638 11001 5501
N 1802.21 0.0874384 90.1528 11002 5501
N 2227.36 96.1683 87.8737 11003 5502
N 2227.26 96.83329999999999 86.9811 11004 5502
N 2177.9 105.975 5.66335 11005 5503
N 2178.17 106.586 4.75974 11006 5503
N 1867.71 62.966 33.8245 11007 5504
N 1867.43 64.03740000000001 33.7852 11008 5504
N 2326.39 130.421 69.86620000000001 11009 5505
N 2327.06 130.541 70.7696 11010 5505
N 1701.44 44.5956 39.8778 11011 5506
N 1701.63 45.656 40.1734 11012 5506
N 1919.59 97.9995 97.68989999999999 11013 5507
N 1919.88 97.5457 96.7105 11014 5507
N 1903.92 91.779 69.2431 11015 5508
N 1903.46 92.32689999999999 70.1026 11016 5508
N 1606.44 86.64239999999999 8.807219999999999 11017 5509
N 1605.64 86.3831 8.050700000000001 11018 5509
N 2247.97 2.01904 36.3324 11019 5510
N 2248.11 1.17436 37.0486 11020 5510
N 1964.13 26.6244 119.371 11021 5511
N 1963.23 26.7356 118.717 11022 5511
N 2177.21 112.273 60.7238 11023 5512
N 2178.32 112.348 60.5467 11024 5512
N 2225.02 68.8725 69.26179999999999 11025 5513
N 2225.25 69.0676 70.33450000000001 11026 5513
N 1614.95 123.53 44.8889 11027 5514
N 1614.36 123.872 45.7791 11028 5514
N 2705.5 88.50790000000001 130.076 11029 5515
N 2705.71 89.2715 130.866 11030 5515
N 2187.88 144.256 95.6801 11031 5516
N 2187.85 144.068 94.5847 11032 5516
N 2283.7 143.807 61.5597 11033 5517
N 2282.69 144.177 61.2484 11034 5517
N 1811.75 29.9486 106.618 11035 5518
N 1812.86 29.9026 106.588 11036 5518
N 2495.56 141.173 57.1644 11037 5519
N 2494.64 141.156 57.799 11038 5519
N 1753.91 124.358 11.6658 11039 5520
N 1752.93 124.831 11.9457 11040 5520
N 2054.86 114.914 83.5856 11041 5521
N 2054.68 115.446 82.6245 11042 5521
N 2110.87 127.723 102.571 11043 5522
N 2110.6 127.467 101.506 11044 5522
N 1826.01 56.3549 115.147 11045 5523
N 1825.8 55.8218 116.112 11046 5523
N 1629.15 121.671 42.3312 11047 5524
N 1630 122.186 41.8132 11048 5524
N 1853.95 130.067 23.4819 11049 5525
N 1853.48 131.063 23.3211 11050 5525
N 1945.73 57.476 129.981 11051 5526
N 1946.02 58.2356 129.212 11052 5526
N 2103.12 62.1333 119.773 11053 5527
N 2102.06 61.8344 119.951 11054 5527
N 2544 18.7772 27.1843 11055 5528
N 2543.87 19.7486 26.6383 11056 5528
N 1932.57 54.22 108.234 11057 5529
N 1931.83 54.0549 109.042 11058 5529
N 2206.68 64.996 13.265 11059 5530
N 2207.32 65.8826 13.5372 11060 5530
N 2095.21 46.1854 31.6 11061 5531
N 2094.3 46.6627 32.0538 11062 5531
N 2169.91 38.1228 78.3909 11063 5532
N 2169.95 38.2788 79.4956 11064 5532
N 1890.14 105.085 73.828 11065 5533
N 1891.01 105.754 74.02079999999999 11066 5533
N 2079.79 82.9524 46.2778 11067 5534
N 2079.62 83.0889 45.1801 11068 5534
N 2202.83 17.6454 92.56480000000001 11069 5535
N 2203.34 18.4608 91.9889 11070 5535
N 1949.72 107.242 106.311 11071 5536
N 1948.93 107.995 106.576 11072 5536
N 1969.41 0.370241 106.421 11073 5537
N 1970.19 0.604455 105.651 11074 5537
N 1665.58 71.857 124.59 11075 5538
N 1664.63 72.2859 124.996 11076 5538
N 2009.89 146.865 25.8019 11077 5539
N 2009.48 147.553 26.5838 11078 5539
N 1768.66 133.601 65.8087 11079 5540
N 1769.71 133.375 66.1512 11080 5540
N 1922.97 17.8679 134.84 11081 5541
N 1923.08 18.5661 133.965 11082 5541
N 1798.65 126.617 129.393 11083 5542
N 1798.45 127.712 129.58 11084 5542
N 1939.59 9.74607 75.1037 11085 5543
N 1940.3 10.5802 74.8806 11086 5543
N 1985.61 100.687 143.937 11087 5544
N 1986.57 100.379 143.459 11088 5544
N 2084.09 100.189 99.4192 11089 5545
N 2084.87 99.8125 98.7077 11090 5545
N 2072.63 53.9848 79.5239 11091 5546
N 2072.42 54.3841 78.4958 11092 5546
N 2005.2 94.4602 146.789 11093 5547
N 2004.83 94.11060000000001 145.794 11094 5547
N 1799.15 147.646 96.2786 11095 5548
N 1798.48 147.134 97.0098 11096 5548
N 2649.65 94.777 100.636 11097 5549
N 2649.77 94.4071 101.689 11098 5549
N 1968.34 80.3511 25.5962 11099 5550
N 1967.28 80.3612 25.2085 11100 5550
N 1944.96 144.836 46.6404 11101 5551
N 1943.9 145.179 46.5099 11102 5551
N 2346.16 53.8157 127.303 11103 5552
N 2345.83 54.8328 126.967 11104 5552
N 2590.35 136.534 83.4983 11105 5553
N 2589.49 136.411 84.2148 11106 5553
N 2165.86 57.2124 83.6298 11107 5554
N 2165.1 56.7363 84.2941 11108 5554
N 2023.13 88.95350000000001 78.5474 11109 5555
N 2023.94 89.6758 78.86239999999999 11110 5555
N 1739.8 36.7908 13.1399 11111 5556
N 1740.6 37.5738 13.1424 11112 5556
N 2270.94 136.729 18.5748 11113 5557
N 2272.02 136.894 18.3528 11114 5557
N 2246.23 107.343 36.6597 11115 5558
N 2246.45 106.408 37.237 11116 5558
N 1889.07 34.341 62.5872 11117 5559
N 1888.91 33.5279 61.8327 11118 5559
N 1820.93 46.3092 32.143 11119 5560
N 1821.48 45.6414 31.4185 11120 5560
N 1992 63.5724 35.3859 11121 5561
N 1992.79 64.2435 34.9533 11122 5561
N 1636.07 101.996 135.204 11123 5562
N 1636.11 100.991 135.677 11124 5562
N 1997.39 10.0861 29.5246 11125 5563
N 1997.3 11.001 30.165 11126 5563
N 2417.46 23.7993 80.7921 11127 5564
N 2418.55 23.5464 80.84610000000001 11128 5564
N 1753.69 77.10169999999999 40.5243 11129 5565
N 1753.07 77.2244 39.6024 11130 5565
N 2045.05 62.6498 59.059 11131 5566
N 2045.91 61.9728 59.2737 11132 5566
N 2023.75 45.8204 48.5275 11133 5567
N 2023.05 44.9627 48.53 11134 5567
N 1937.67 93.3154 125.583 11135 5568
N 1938.09 94.00790000000001 126.363 11136 5568
N 2243.97 57.9269 60.4005 11137 5569
N 2245.01 58.3248 60.5057 11138 5569
N 1844.79 80.83880000000001 1.80805 11139 5570
N 1845.5 80.8094 2.6858 11140 5570
N 1802.67 136.225 15.2248 11141 5571
N 1801.71 136.724 15.4839 11142 5571
N 2341.92 52.6237 42.9459 11143 5572
N 2342.49 51.7519 43.3683 11144 5572
N 2056.85 51.5822 9.37486 11145 5573
N 2056.87 51.4629 8.27074 11146 5573
N 1694.04 24.1392 51.6743 11147 5574
N 1693.16 24.4373 51.0525 11148 5574
N 2119.03 10.1131 12.9458 11149 5575
N 2118.86 11.0511 12.3703 11150 5575
N 2414.51 107.311 113.551 11151 5576
N 2413.97 106.857 114.417 11152 5576
N 2258.38 45.6665 55.2574 11153 5577
N 2258.26 46.1205 56.2721 11154 5577
N 1652.07 83.6593 110.704 11155 5578
N 1651.35 84.4601 111.024 11156 5578
N 1595.28 134.108 118.598 11157 5579
N 1595.27 133.654 117.578 11158 5579
N 2287.85 138.518 3.04005 11159 5580
N 2288.92 138.665 3.34789 11160 5580
N 2656.82 71.5669 37.4763 11161 5581
N 2656.36 72.0394 36.5737 11162 5581
N 1733.85 39.846 22.801 11163 5582
N 1733.17 38.9974 23.0651 11164 5582
N 1901.14 102.533 58.9892 11165 5583
N 1900.33 101.879 59.3788 11166 5583
N 2492.96 109.102 59.858 11167 5584
N 2493.81 108.713 60.4738 11168 5584
N 2349.15 81.6771 30.8614 11169 5585
N 2348.34 82.4055 30.6544 11170 5585
N 2030.79 139.157 3.42632 11171 5586
N 2031.16 139.044 2.3718 11172 5586
N 2561.7 1.9203 78.63200000000001 11173 5587
N 2561.61 1.69464 79.7169 11174 5587
N 2219.46 81.04130000000001 99.2873 11175 5588
N 2219.22 79.94929999999999 99.4301 11176 5588
N 2100.93 18.4733 138.547 11177 5589
N 2100.85 18.5337 139.666 11178 5589
N 2706.61 131.416 141.218 11179 5590
N 2706.5 130.313 141.019 11180 5590
N 1896.42 131.872 110.755 11181 5591
N 1896.05 131.528 109.762 11182 5591
N 1849.57 130.097 68.458 11183 5592
N 1848.97 129.826 69.35299999999999 11184 5592
N 2200.14 37.3359 33.4217 11185 5593
N 2200.79 36.4268 33.3379 11186 5593
N 1806.35 95.14570000000001 90.3081 11187 5594
N 1807.22 95.7598 89.9425 11188 5594
N 1756.45 83.0414 117.733 11189 5595
N 1757.41 83.03789999999999 118.296 11190 5595
N 2268.15 123.737 148.888 11191 5596
N 2269.24 123.443 148.832 11192 5596
N 1622.76 123.464 83.2193 11193 5597
N 1622.86 123.256 84.3091 11194 5597
N 2062.16 123.415 24.516 11195 5598
N 2061.3 123.549 23.7916 11196 5598
N 1793.97 108.001 105.723 11197 5599
N 1793.59 108.379 104.741 11198 5599
N 2148.41 101.976 124.48 11199 5600
N 2148.98 101.62 125.362 11200 5600
N 1801.81 72.21550000000001 52.9767 11201 5601
N 1802.84 72.2247 53.424 11202 5601
N 1631.87 27.8883 6.33192 11203 5602
N 1631.33 28.8415 6.56835 11204 5602
N 2231.2 97.1675 102.484 11205 5603
N 2231.44 97.874 103.3 11206 5603
N 1850.71 118.339 98.1193 11207 5604
N 1850.29 117.587 98.8313 11208 5604
N 2190.26 41.3398 129.516 11209 5605
N 2190.83 41.7034 128.623 11210 5605
N 1853.25 72.1592 23.5505 11211 5606
N 1853.66 71.7597 24.5048 11212 5606
N 1726.85 8.795199999999999 68.09439999999999 11213 5607
N 1727.55 9.21468 68.86579999999999 11214 5607
N 2820.45 109.222 96.8356 11215 5608
N 2819.4 109.555 96.6889 11216 5608
N 2029.28 144.133 3.09957 11217 5609
N 2028.98 143.169 2.64511 11218 5609
N 1757.11 95.4654 117.132 11219 5610
N 1756.48 96.1387 117.768 11220 5610
N 2172.69 8.830209999999999 126.237 11221 5611
N 2171.65 8.49653 126.497 11222 5611
N 2008.67 66.6978 2.71382 11223 5612
N 2009.48 67.1977 2.13044 11224 5612
N 2055.9 93.39060000000001 42.9694 11225 5613
N 2056.68 93.36 42.1813 11226 5613
N 2010.19 79.1234 53.6535 11227 5614
N 2010.78 79.267 54.5997 11228 5614
N 1634.76 53.2416 128.84 11229 5615
N 1633.85 53.8926 128.862 11230 5615
N 2044.41 145.234 103.053 11231 5616
N 2044.16 145.517 102.005 11232 5616
N 2128.66 128.232 33.9614 11233 5617
N 2129.02 127.628 33.0818 11234 5617
N 2384.39 79.70829999999999 117.904 11235 5618
N 2383.48 79.2037 117.493 11236 5618
N 1747.57 47.4239 57.4612 11237 5619
N 1747.22 46.4185 57.1474 11238 5619
N 2092.59 147.502 34.8106 11239 5620
N 2092.61 148.5 34.2872 11240 5620
N 2214.62 19.0391 54.3625 11241 5621
N 2213.63 19.437 54.0418 11242 5621
N 2032.89 77.0578 42.5913 11243 5622
N 2033.86 77.5354 42.2994 11244 5622
N 1684.48 77.21429999999999 102.124 11245 5623
N 1685.26 76.9571 102.886 11246 5623
N 2471.19 7.75751 101.032 11247 5624
N 2471.86 8.479990000000001 101.559 11248 5624
N 2219.38 15.8055 33.4913 11249 5625
N 2219.05 16.5728 34.2354 11250 5625
N 1893.75 96.5442 103.461 11251 5626
N 1892.76 96.8522 103.892 11252 5626
N 1874.39 83.5924 33.4442 11253 5627
N 1874.18 82.55159999999999 33.8014 11254 5627
N 2036.33 47.5662 50.4214 11255 5628
N 2035.39 46.9845 50.2366 11256 5628
N 2270.94 134.159 142.372 11257 5629
N 2271.01 134.436 143.461 11258 5629
N 1671.78 76.8223 142.632 11259 5630
N 1670.92 76.6249 141.98 11260 5630
N 1996.47 16.9816 10.5211 11261 5631
N 1996.88 16.0756 11.0211 11262 5631
N 1861.41 112.873 44.7276 11263 5632
N 1860.54 112.458 45.2799 11264 5632
N 1670.33 43.8901 105.34 11265 5633
N 1669.3 43.5537 105.654 11266 5633
N 1987.99 50.2324 38.4375 11267 5634
N 1987.87 49.1637 38.7374 11268 5634
N 1830.51 6.09367 16.9047 11269 5635
N 1831.37 5.41212 16.71 11270 5635
N 1725.52 40.2229 8.64508 11271 5636
N 1725.11 40.4602 7.6262 11272 5636
N 2187.94 19.3793 4.49628 11273 5637
N 2187.5 19.849 5.41605 11274 5637
N 1764.42 19.8964 30.8197 11275 5638
N 1763.91 20.6079 31.5132 11276 5638
N 1730.55 101.961 66.756 11277 5639
N 1730.93 102.859 66.2039 11278 5639
N 1884.29 44.0088 62.8415 11279 5640
N 1883.85 44.075 63.8723 11280 5640
N 2013.58 3.66574 148.022 11281 5641
N 2013.72 4.74381 148.246 11282 5641
N 1892.21 127.474 145.366 11283 5642
N 1891.47 126.667 145.544 11284 5642
N 2099.6 40.548 123.933 11285 5643
N 2100.47 39.8569 123.927 11286 5643
N 2026.43 100.012 37.568 11287 5644
N 2025.47 100.522 37.3103 11288 5644
N 2507.58 133.278 81.3798 11289 5645
N 2508.01 133.043 80.384 11290 5645
N 2528.53 52.6536 112.99 11291 5646
N 2528.71 52.0351 112.078 11292 5646
N 2118.38 91.93000000000001 31.9857 11293 5647
N 2118.72 91.358 32.8876 11294 5647
N 2198.75 91.6454 141.894 11295 5648
N 2198.68 90.71810000000001 141.253 11296 5648
N 2081.42 115.882 38.6891 11297 5649
N 2080.4 115.875 38.2321 11298 5649
N 1786.88 75.1939 111.162 11299 5650
N 1785.78 75.3661 111.03 11300 5650
N 1713.15 76.3004 17.9294 11301 5651
N 1714.24 76.52800000000001 18.0129 11302 5651
N 2123.47 61.9513 76.6305 11303 5652
N 2123.75 61.679 77.6784 11304 5652
N 2046.93 41.1155 86.5608 11305 5653
N 2046.8 40.492 87.48009999999999 11306 5653
N 1480.84 4.82339 35.492 11307 5654
N 1480.41 5.2561 36.4236 11308 5654
N 2057.09 24.9917 20.7727 11309 5655
N 2056.13 24.4375 20.9307 11310 5655
N 2265.2 101.875 96.3305 11311 5656
N 2264.22 101.397 96.1532 11312 5656
N 1806.56 138.657 131.672 11313 5657
N 1807.09 138.82 130.706 11314 5657
N 1895.67 1.24797 84.68600000000001 11315 5658
N 1894.82 0.951672 85.33159999999999 11316 5658
N 2150.93 88.4738 148.137 11317 5659
N 2150.91 89.4552 147.621 11318 5659
N 1672.54 13.6993 39.499 11319 5660
N 1671.67 13.533 40.1919 11320 5660
N 2068.9 80.0872 5.87662 11321 5661
N 2069.75 80.80459999999999 5.67898 11322 5661
N 2729.95 82.42919999999999 44.647 11323 5662
N 2729.32 82.83029999999999 45.4769 11324 5662
N 2204.27 127.919 101.497 11325 5663
N 2203.74 127.467 100.626 11326 5663
N 2207.09 104.919 20.7451 11327 5664
N 2206.83 103.835 20.845 11328 5664
N 2053.33 147.737 13.6485 11329 5665
N 2052.77 148.681 13.4401 11330 5665
N 2364.19 57.2166 4.52336 11331 5666
N 2363.74 56.5607 5.30811 11332 5666
N 1946.32 118.166 143.712 11333 5667
N 1946.88 118.137 144.675 11334 5667
N 2078.56 115.043 11.5399 11335 5668
N 2079.07 114.627 12.4327 11336 5668
N 1515.76 71.41500000000001 87.09520000000001 11337 5669
N 1514.72 70.9682 87.14960000000001 11338 5669
N 2099.61 8.4368 52.0366 11339 5670
N 2098.96 7.64181 51.6029 11340 5670
N 2265.41 122.049 13.7439 11341 5671
N 2265.07 123.101 13.8931 11342 5671
N 1651.72 58.5188 147.996 11343 5672
N 1651.7 58.1322 149.047 11344 5672
N 2422.18 107.773 130.652 11345 5673
N 2421.35 108.02 131.368 11346 5673
N 2348.01 101.973 130.803 11347 5674
N 2347.81 101.499 129.804 11348 5674
N 2502.96 73.38590000000001 78.5793 11349 5675
N 2502.11 73.7199 79.2317 11350 5675
N 2086.12 16.1119 73.91679999999999 11351 5676
N 2085.49 15.6505 73.131 11352 5676
N 1627.34 100.372 97.57980000000001 11353 5677
N 1627.39 99.2953 97.2522 11354 5677
N 2099.28 96.8262 31.2237 11355 5678
N 2099.15 97.26739999999999 32.2478 11356 5678
N 2123.96 0.892705 71.76900000000001 11357 5679
N 2123.84 0.0411279 71.0536 11358 5679
N 1684.36 60.4176 76.0607 11359 5680
N 1685.34 60.1525 76.5449 11360 5680
N 1971.52 55.7727 81.4659 11361 5681
N 1971.01 55.6299 80.4678 11362 5681
N 2169.48 68.4207 146.407 11363 5682
N 2168.67 68.4405 147.166 11364 5682
N 1958.77 105.244 91.2786 11365 5683
N 1957.71 104.895 91.3171 11366 5683
N 2728.4 86.2927 17.9558 11367 5684
N 2728.85 87.1596 18.4893 11368 5684
N 2206 69.3296 83.7761 11369 5685
N 2207 69.28440000000001 84.2734 11370 5685
N 1752.07 65.27119999999999 0.466997 11371 5686
N 1752.95 64.6751 0.109873 11372 5686
N 2270.98 47.7149 14.493 11373 5687
N 2270.01 47.208 14.2946 11374 5687
N 2047.99 125.02 84.1212 11375 5688
N 2047.78 125.492 83.1352 11376 5688
N 2313.16 70.431 95.03319999999999 11377 5689
N 2312.66 69.70440000000001 95.7242 11378 5689
N 2334.36 65.3449 130.462 11379 5690
N 2334.23 66.4602 130.494 11380 5690
N 2053.16 129.388 64.0517 11381 5691
N 2053.31 128.285 64.1581 11382 5691
N 1947.56 59.9497 39.5262 11383 5692
N 1948.17 59.0739 39.1878 11384 5692
N 1988.65 69.501 118.047 11385 5693
N 1987.57 69.4365 117.715 11386 5693
N 2226.4 2.83017 112.441 11387 5694
N 2225.7 2.04253 112.795 11388 5694
N 2200.43 123.455 50.4118 11389 5695
N 2199.52 123.151 50.9902 11390 5695
N 2035.74 37.8495 61.9857 11391 5696
N 2036.39 37.2166 61.3482 11392 5696
N 2084.25 148.312 149.644 11393 5697
N 2083.55 149.065 149.19 11394 5697
N 2087.91 16.6341 85.1551 11395 5698
N 2087.33 16.283 84.2642 11396 5698
N 1633.34 121.107 100.95 11397 5699
N 1633.78 120.076 100.912 11398 5699
N 2064.26 125.291 138.279 11399 5700
N 2063.61 125.054 139.169 11400 5700
N 1941.89 117.075 121.435 11401 5701
N 1942.53 116.247 121.824 11402 5701
N 2075.04 29.3708 58.232 11403 5702
N 2074.25 29.3166 59.0236 11404 5702
N 2183 124.5 98.3207 11405 5703
N 2184.02 124.802 98.0266 11406 5703
N 1848.3 21.6251 18.2757 11407 5704
N 1847.72 20.7178 17.9822 11408 5704
N 1738.02 38.4807 16.6886 11409 5705
N 1737.86 39.4908 16.2368 11410 5705
N 1842.07 2.7537 16.3871 11411 5706
N 1842.44 1.99337 15.6602 11412 5706
N 1757.56 76.97029999999999 74.8673 11413 5707
N 1758.59 77.18170000000001 75.2336 11414 5707
N 2207.49 25.4022 54.4523 11415 5708
N 2206.96 25.8957 53.5938 11416 5708
N 1670.26 92.59999999999999 19.2581 11417 5709
N 1671.31 92.42789999999999 18.9743 11418 5709
N 2846.19 134.339 122.314 11419 5710
N 2847.28 134.323 122.034 11420 5710
N 2127.88 145.26 3.85217 11421 5711
N 2128.18 145.748 4.81426 11422 5711
N 2057.06 127.288 31.7662 11423 5712
N 2057.06 126.303 31.2306 11424 5712
N 2267.3 134.122 51.4719 11425 5713
N 2266.98 133.088 51.1886 11426 5713
N 1683.8 138.612 57.4617 11427 5714
N 1684.42 137.689 57.3405 11428 5714
N 2206.43 13.9291 81.7921 11429 5715
N 2207.54 13.9366 81.6807 11430 5715
N 2416.13 104.76 69.2341 11431 5716
N 2415.81 103.811 69.7747 11432 5716
N 2288.4 118.899 6.25488 11433 5717
N 2288.7 118.31 7.17849 11434 5717
N 2123.87 62.0807 107.913 11435 5718
N 2123.76 61.4776 106.986 11436 5718
N 1876 38.7441 72.2162 11437 5719
N 1874.93 38.384 72.3738 11438 5719
N 1737.18 34.0471 39.6329 11439 5720
N 1738.1 33.9671 40.2544 11440 5720
N 2269.1 89.09999999999999 87.8443 11441 5721
N 2268.63 90.05 88.20350000000001 11442 5721
N 2442.79 7.26904 141.299 11443 5722
N 2442.75 6.8723 140.268 11444 5722
N 2467.36 50.1613 61.5027 11445 5723
N 2468.04 51.0463 61.551 11446 5723
N 2295.35 42.2712 58.4033 11447 5724
N 2296.26 42.4816 57.7877 11448 5724
N 2557.15 50.8095 3.30048 11449 5725
N 2556.97 51.6473 4.03394 11450 5725
N 2295.05 22.6019 113.728 11451 5726
N 2294.66 21.8163 113.028 11452 5726
N 1999.6 64.4417 104.559 11453 5727
N 1998.81 64.0446 105.242 11454 5727
N 2308.69 14.8146 78.9789 11455 5728
N 2309.17 13.8291 79.20999999999999 11456 5728
N 2858.06 89.78959999999999 127.578 11457 5729
N 2858.63 88.8313 127.381 11458 5729
N 2311.4 47.361 55.9203 11459 5730
N 2312.22 46.8347 56.4892 11460 5730
N 2771.29 26.8988 44.443 11461 5731
N 2771.25 27.9979 44.5999 11462 5731
N 2517.09 46.3643 13.5819 11463 5732
N 2516.32 46.7764 12.8808 11464 5732
N 2184.37 147.541 79.59229999999999 11465 5733
N 2185.43 147.729 79.8948 11466 5733
N 1669.94 89.0519 104.297 11467 5734
N 1670.33 88.10899999999999 103.857 11468 5734
N 2350.58 16.1825 114.61 11469 5735
N 2351.13 15.9229 115.551 11470 5735
N 2325.2 69.3929 42.7105 11471 5736
N 2324.44 69.9526 43.2939 11472 5736
N 2872.26 80.3348 31.7999 11473 5737
N 2873.35 80.098 31.7127 11474 5737
N 2100.63 125.072 41.073 11475 5738
N 2100.19 125.122 42.1039 11476 5738
N 2596.88 63.63 39.3976 11477 5739
N 2597.67 63.4032 38.6336 11478 5739
N 2162.52 146.997 80.5188 11479 5740
N 2161.96 147.689 81.2015 11480 5740
N 2542.03 50.139 99.5779 11481 5741
N 2541.6 49.7633 98.60899999999999 11482 5741
N 2274.57 14.0784 78.9705 11483 5742
N 2273.71 13.9391 78.2677 11484 5742
N 2092.94 102.513 52.3591 11485 5743
N 2094 102.862 52.2424 11486 5743
N 1948.28 13.6766 64.6985 11487 5744
N 1949.12 13.8761 63.9887 11488 5744
N 2108.59 68.3197 104.963 11489 5745
N 2108.5 69.32899999999999 104.497 11490 5745
N 2361.62 101.414 65.2971 11491 5746
N 2362.31 102.233 64.9478 11492 5746
N 2408.12 43.1719 41.0807 11493 5747
N 2407.14 42.7344 41.4125 11494 5747
N 2308.98 73.47069999999999 56.2466 11495 5748
N 2308.24 73.3181 55.4169 11496 5748
N 2028.15 70.1936 50.935 11497 5749
N 2028.04 71.0329 50.1972 11498 5749
N 2772.06 137.019 99.6031 11499 5750
N 2771 137.323 99.59569999999999 11500 5750
N 2345.98 26.7749 120.202 11501 5751
N 2345.46 26.9135 119.217 11502 5751
N 2239.51 97.9811 100.982 11503 5752
N 2239.5 99.0291 101.341 11504 5752
N 1807.52 102.518 126.47 11505 5753
N 1807.66 102.814 125.395 11506 5753
N 1685.58 23.5115 81.1751 11507 5754
N 1684.58 23.6194 81.6474 11508 5754
N 2314.61 25.908 16.099 11509 5755
N 2315.34 26.7099 16.3591 11510 5755
N 2088.85 17.3992 13.2025 11511 5756
N 2088.51 16.3964 12.8391 11512 5756
N 1890.12 44.1255 69.1508 11513 5757
N 1890.41 43.8315 68.11669999999999 11514 5757
N 2680.3 117.005 37.7341 11515 5758
N 2679.8 117.858 38.2552 11516 5758
N 1954.26 71.2546 95.1601 11517 5759
N 1954.66 72.1711 95.6493 11518 5759
N 2216.72 149.212 149.54 11519 5760
N 2217.1 0.23761 149.325 11520 5760
N 2265.84 149.019 115.696 11521 5761
N 2266.28 148.417 116.542 11522 5761
N 2402.54 8.042770000000001 52.7201 11523 5762
N 2401.85 7.90154 53.611 11524 5762
N 2260.3 119.095 13.9662 11525 5763
N 2261.12 118.487 14.4383 11526 5763
N 2191.66 85.00960000000001 84.5544 11527 5764
N 2192.04 85.29340000000001 85.5603 11528 5764
N 1922.75 11.8625 88.9332 11529 5765
N 1922.29 10.8784 89.24550000000001 11530 5765
N 2248.7 74.5732 33.997 11531 5766
N 2248.97 75.6574 33.9105 11532 5766
N 2043.99 89.6345 22.1772 11533 5767
N 2043.63 90.6782 22.2737 11534 5767
N 2807.23 92.1113 14.674 11535 5768
N 2806.42 92.1202 15.437 11536 5768
N 2006.97 143.971 112.61 11537 5769
N 2008.07 144.125 112.549 11538 5769
N 2214.79 135.985 81.27679999999999 11539 5770
N 2213.7 135.936 81.03879999999999 11540 5770
N 1795.29 83.9282 127.476 11541 5771
N 1795.1 83.4267 126.491 11542 5771
N 2132.46 53.3971 80.76519999999999 11543 5772
N 2132.72 54.4033 81.1756 11544 5772
N 2027.64 145.284 94.0337 11545 5773
N 2028.41 145.484 94.8197 11546 5773
N 2037.32 68.10469999999999 121.623 11547 5774
N 2036.31 68.39619999999999 122.026 11548 5774
N 2180.28 91.6431 32.0873 11549 5775
N 2179.69 92.4413 31.5778 11550 5775
N 2426.5 32.2046 78.7315 11551 5776
N 2426.62 31.3107 79.39449999999999 11552 5776
N 1558.34 142.553 29.754 11553 5777
N 1558.72 142.168 30.7473 11554 5777
N 2189.51 148.555 56.3301 11555 5778
N 2188.59 149.178 56.4673 11556 5778
N 2044.76 58.6171 125.397 11557 5779
N 2045.26 57.6281 125.274 11558 5779
N 2183.47 14.7415 149.706 11559 5780
N 2182.69 15.3029 0.281594 11560 5780
N 2443.58 77.569 121.612 11561 5781
N 2443.57 78.67870000000001 121.751 11562 5781
N 1966.39 110.643 57.7728 11563 5782
N 1965.61 110.248 57.0818 11564 5782
N 1879.78 34.6971 75.6841 11565 5783
N 1878.81 34.1828 75.8694 11566 5783
N 2157.18 128.255 60.6324 11567 5784
N 2157.94 128.993 60.2841 11568 5784
N 2452.31 13.3277 108.488 11569 5785
N 2452.88 13.0269 107.572 11570 5785
N 2535 144.092 25.5913 11571 5786
N 2535.16 145.114 26.0021 11572 5786
N 1970.98 114.255 39.8234 11573 5787
N 1971.35 115.272 40.0993 11574 5787
N 2522.45 8.142720000000001 52.0191 11575 5788
N 2522.37 7.54086 51.0775 11576 5788
N 1878.51 107.205 140.84 11577 5789
N 1878.75 106.106 140.865 11578 5789
N 1978.25 71.2072 84.02500000000001 11579 5790
N 1978.5 70.3884 84.748 11580 5790
N 2312.72 114.187 24.7534 11581 5791
N 2312.72 115.163 24.2257 11582 5791
N 2269.74 109.718 12.0831 11583 5792
N 2268.76 110.262 12.0335 11584 5792
N 2356.86 129.139 44.3225 11585 5793
N 2356.17 129.798 44.9023 11586 5793
N 2122.85 15.0791 85.0916 11587 5794
N 2123.83 15.0339 85.60250000000001 11588 5794
N 1937.96 72.31440000000001 48.8078 11589 5795
N 1939 72.31610000000001 48.4573 11590 5795
N 2337.81 27.243 26.7367 11591 5796
N 2337.15 27.6853 25.9491 11592 5796
N 2302.58 13.1552 86.05410000000001 11593 5797
N 2303.24 13.653 85.31229999999999 11594 5797
N 2275.24 48.4959 149.645 11595 5798
N 2275.53 48.634 148.581 11596 5798
N 2453.3 73.6343 121.191 11597 5799
N 2453.2 72.5778 121.542 11598 5799
N 2585.2 104.972 5.33754 11599 5800
N 2586.04 104.817 4.60362 11600 5800
N 2238.3 68.2366 57.8628 11601 5801
N 2237.73 67.7306 57.0325 11602 5801
N 2330.73 66.7098 61.4921 11603 5802
N 2330.85 67.2324 60.5097 11604 5802
N 2314.13 24.3614 21.8182 11605 5803
N 2313.76 25.4212 21.8411 11606 5803
N 1912.72 49.3781 80.145 11607 5804
N 1913.12 50.3923 80.3262 11608 5804
N 2080.13 45.6705 5.96708 11609 5805
N 2079.22 45.1628 5.56799 11610 5805
N 2453.81 148.893 1.74752 11611 5806
N 2453 149.073 2.50649 11612 5806
N 1775.71 2.8205 134.777 11613 5807
N 1776.44 2.16314 134.248 11614 5807
N 2000.31 13.6476 26.6953 11615 5808
N 2001.05 12.8257 26.8664 11616 5808
N 2591.22 63.1729 110.064 11617 5809
N 2591.42 62.7796 111.089 11618 5809
N 2448.69 74.4348 90.2389 11619 5810
N 2447.98 74.7302 91.0489 11620 5810
N 2482.78 21.4485 96.3938 11621 5811
N 2483.07 20.5309 95.8158 11622 5811
N 2639.47 93.1636 98.0667 11623 5812
N 2638.85 94.08920000000001 98.0658 11624 5812
N 1960.45 75.8171 132.524 11625 5813
N 1960.16 76.7548 131.999 11626 5813
N 2223.66 26.3381 27.6124 11627 5814
N 2224.67 26.6492 27.9658 11628 5814
N 2300.29 26.4726 110.315 11629 5815
N 2299.28 26.4136 109.851 11630 5815
N 1805.42 67.1225 51.8769 11631 5816
N 1804.76 67.9821 51.6285 11632 5816
N 2107.65 74.8603 110.208 11633 5817
N 2108.38 75.33329999999999 110.912 11634 5817
N 2371.01 143.775 55.4036 11635 5818
N 2370.75 143.723 56.4869 11636 5818
N 2357.49 59.1465 148.311 11637 5819
N 2356.77 60.0169 148.306 11638 5819
N 2016.81 73.80629999999999 76.3301 11639 5820
N 2016.62 73.75749999999999 77.426 11640 5820
N 2105.54 115.3 91.83320000000001 11641 5821
N 2105.43 114.71 92.7936 11642 5821
N 2042.82 149.947 130.088 11643 5822
N 2043.86 149.976 130.506 11644 5822
N 1571.2 94.2492 30.3272 11645 5823
N 1570.26 94.77500000000001 30.546 11646 5823
N 2111.77 14.0027 9.33845 11647 5824
N 2110.76 13.8997 8.83942 11648 5824
N 1797.69 0.828216 92.5157 11649 5825
N 1798.76 1.0713 92.3165 11650 5825
N 2167.55 60.2318 119.613 11651 5826
N 2167.99 59.6769 120.471 11652 5826
N 1681.29 63.03 31.7184 11653 5827
N 1680.74 63.997 31.8597 11654 5827
N 2451.04 87.15089999999999 141.014 11655 5828
N 2450.07 86.6007 140.982 11656 5828
N 2024.67 88.5463 63.538 11657 5829
N 2024.1 89.42749999999999 63.1433 11658 5829
N 1539.78 104.269 64.748 11659 5830
N 1538.92 104.871 64.36709999999999 11660 5830
N 2071.18 54.4113 34.1409 11661 5831
N 2070.44 54.7061 33.3521 11662 5831
N 2453.06 26.0797 40.8616 11663 5832
N 2453.29 27.0564 41.3788 11664 5832
N 2286.72 134.276 73.806 11665 5833
N 2287.11 133.321 73.367 11666 5833
N 2504.31 63.38 92.1189 11667 5834
N 2505.07 62.5673 92.19629999999999 11668 5834
N 1889.27 102.724 48.099 11669 5835
N 1888.74 103.429 47.4081 11670 5835
N 2167.95 93.9534 138.193 11671 5836
N 2168.18 93.00449999999999 138.724 11672 5836
N 2223.06 134.194 15.6598 11673 5837
N 2222.26 133.466 15.3753 11674 5837
N 1886.2 23.5968 93.0545 11675 5838
N 1886.34 22.6723 92.4365 11676 5838
N 2477.25 122.009 64.84099999999999 11677 5839
N 2478.34 121.953 64.63500000000001 11678 5839
N 2005.92 126.093 127.052 11679 5840
N 2005.68 127.162 127.287 11680 5840
N 2103.44 37.3188 121.239 11681 5841
N 2103.64 38.1201 120.487 11682 5841
N 2192.51 142.449 10.7961 11683 5842
N 2192.41 141.409 11.2076 11684 5842
N 2191.44 73.3914 125.116 11685 5843
N 2191.75 73.2529 124.049 11686 5843
N 2329.16 79.33799999999999 109.533 11687 5844
N 2329 78.3351 110.013 11688 5844
N 2222.45 110.01 21.505 11689 5845
N 2221.62 109.901 20.752 11690 5845
N 1730.43 73.2068 136.621 11691 5846
N 1730.61 72.2299 137.143 11692 5846
N 2222.04 2.41374 112.139 11693 5847
N 2221.4 2.61053 111.269 11694 5847
N 1973.59 30.7143 71.9226 11695 5848
N 1974.01 31.2416 71.024 11696 5848
N 2475.38 82.3382 82.35639999999999 11697 5849
N 2475.14 83.2578 81.7632 11698 5849
N 2247.99 14.7622 69.36190000000001 11699 5850
N 2248.93 14.6742 69.9721 11700 5850
N 2303.61 0.729013 108.422 11701 5851
N 2303.57 0.301816 107.391 11702 5851
N 2041.48 79.2343 55.3597 11703 5852
N 2041.9 79.3553 54.3277 11704 5852
N 2193.04 43.8082 46.1142 11705 5853
N 2193.7 43.1507 46.7359 11706 5853
N 2535.63 129.075 80.6741 11707 5854
N 2536.23 128.355 81.2739 11708 5854
N 1869.44 28.1319 39.5456 11709 5855
N 1870.5 28.3255 39.2107 11710 5855
N 2688.45 137.578 123.605 11711 5856
N 2689.35 138.142 123.949 11712 5856
N 2361.16 68.5723 29.3794 11713 5857
N 2361.78 69.3643 29.866 11714 5857
N 2163.66 24.4767 140.221 11715 5858
N 2163.16 25.0274 139.385 11716 5858
N 1957.31 136.417 14.2241 11717 5859
N 1957.44 135.31 14.3317 11718 5859
N 2214.43 6.75458 28.3936 11719 5860
N 2214.27 7.70166 28.9711 11720 5860
N 1937.33 6.64267 76.2589 11721 5861
N 1937.97 5.98343 75.6489 11722 5861
N 2109.15 96.6357 125.615 11723 5862
N 2109.84 95.8257 125.253 11724 5862
N 2514.85 47.91 5.56763 11725 5863
N 2515.45 46.983 5.74525 11726 5863
N 2195.13 55.4742 30.4178 11727 5864
N 2195.34 55.4644 29.3107 11728 5864
N 2221.67 22.7867 124.416 11729 5865
N 2221 22.6172 125.303 11730 5865
N 2365.32 88.8467 61.9667 11731 5866
N 2364.32 89.26519999999999 61.6543 11732 5866
N 1998.26 77.67449999999999 137.151 11733 5867
N 1998.83 78.307 137.877 11734 5867
N 2442.46 146.571 13.8295 11735 5868
N 2443.32 145.865 13.9331 11736 5868
N 2197.33 87.8507 9.29222 11737 5869
N 2197.82 88.04340000000001 10.2732 11738 5869
N 1933.1 48 23.989 11739 5870
N 1932.47 48.6078 23.2965 11740 5870
N 2302.63 49.3684 108.345 11741 5871
N 2302.24 49.2254 107.304 11742 5871
N 2589.18 43.6202 130.604 11743 5872
N 2589.54 42.5913 130.882 11744 5872
N 2184.66 140.483 107.568 11745 5873
N 2185.72 140.293 107.862 11746 5873
N 2079.79 90.9234 25.8029 11747 5874
N 2079.08 90.37739999999999 25.1342 11748 5874
N 2252.96 121.074 34.9872 11749 5875
N 2253.46 120.249 34.4114 11750 5875
N 1690.14 29.9767 125.999 11751 5876
N 1690.22 29.5577 127.033 11752 5876
N 2038.48 57.5055 144.128 11753 5877
N 2038.63 56.4125 144.301 11754 5877
N 1904.23 107.103 87.6891 11755 5878
N 1903.31 107.178 87.0544 11756 5878
N 2046.14 122.427 23.436 11757 5879
N 2046.4 122.976 24.3744 11758 5879
N 1730.9 38.2231 6.70777 11759 5880
N 1729.95 38.819 6.66364 11760 5880
N 2414.96 22.1306 91.98520000000001 11761 5881
N 2415.44 23.0454 91.5641 11762 5881
N 2426.73 53.9301 42.2149 11763 5882
N 2427.35 54.8365 41.9726 11764 5882
N 2077.91 58.8473 111.66 11765 5883
N 2078.35 57.8858 112.049 11766 5883
N 2244.55 27.1774 28.2377 11767 5884
N 2244.5 27.0693 27.121 11768 5884
N 2238.28 8.541410000000001 62.0441 11769 5885
N 2237.58 8.981450000000001 61.2712 11770 5885
N 1724.55 24.1759 107.573 11771 5886
N 1723.66 24.8131 107.825 11772 5886
N 2028.84 116.587 117.946 11773 5887
N 2027.79 116.351 118.284 11774 5887
N 2445.54 124.417 17.0964 11775 5888
N 2444.77 123.982 16.4117 11776 5888
N 1596.28 114.548 26.7627 11777 5889
N 1595.73 115.382 27.2797 11778 5889
N 2129.86 8.405250000000001 85.7205 11779 5890
N 2130.63 9.14471 85.4058 11780 5890
N 2280.63 32.5717 67.88639999999999 11781 5891
N 2279.75 32.063 68.34999999999999 11782 5891
N 2482.49 133.478 102.062 11783 5892
N 2482.14 133.21 101.034 11784 5892
N 2289.1 73.4751 20.4366 11785 5893
N 2289.02 73.277 19.3401 11786 5893
N 2364.13 149.506 134.196 11787 5894
N 2363.99 149.863 133.147 11788 5894
N 2039.53 8.098179999999999 139.102 11789 5895
N 2039.64 7.47316 140.015 11790 5895
N 2561.95 137.37 67.1865 11791 5896
N 2561.27 137.966 66.5219 11792 5896
N 2047.04 113.809 108.971 11793 5897
N 2046.76 113.823 107.884 11794 5897
N 2426.69 109.434 80.2555 11795 5898
N 2426.75 109.327 79.1447 11796 5898
N 2363.59 83.3069 50.1844 11797 5899
N 2363.33 82.7942 51.1515 11798 5899
N 2318.92 100.194 130.431 11799 5900
N 2319.64 100.632 129.698 11800 5900
N 1763.2 29.5771 75.6597 11801 5901
N 1763.03 29.6126 74.55500000000001 11802 5901
N 1884.4 120.316 42.8826 11803 5902
N 1883.88 121.279 42.6263 11804 5902
N 2526.82 86.36239999999999 56.5546 11805 5903
N 2526.87 85.2568 56.6471 11806 5903
N 2078.32 116.753 129.941 11807 5904
N 2078.4 116.137 129.01 11808 5904
N 2461.44 141.407 54.1127 11809 5905
N 2462 142.349 53.881 11810 5905
N 2039.14 19.1072 118.586 11811 5906
N 2040.15 19.5467 118.681 11812 5906
N 2275.35 49.1126 29.2238 11813 5907
N 2274.69 50.0133 29.2737 11814 5907
N 1932.55 24.6843 15.836 11815 5908
N 1932.6 24.0353 14.9158 11816 5908
N 1972.27 129.572 121.498 11817 5909
N 1973.24 130.072 121.736 11818 5909
N 2075.92 52.2556 48.1206 11819 5910
N 2076.02 51.136 48.045 11820 5910
N 1906.06 8.28581 45.1648 11821 5911
N 1905.02 8.70918 45.2576 11822 5911
N 2137.23 144.031 91.7212 11823 5912
N 2136.84 143.262 92.4205 11824 5912
N 2003.82 92.92010000000001 89.402 11825 5913
N 2004.03 93.9933 89.17100000000001 11826 5913
N 2595.52 121.775 101.193 11827 5914
N 2595.7 121.937 102.286 11828 5914
N 2040.33 84.5501 86.1969 11829 5915
N 2040.3 85.2859 85.33320000000001 11830 5915
N 2339.67 127.044 131.571 11831 5916
N 2339.63 127.26 130.478 11832 5916
N 2332.46 80.7414 106.22 11833 5917
N 2331.38 80.9787 106.326 11834 5917
N 2007.04 121.587 69.2548 11835 5918
N 2007.59 121.222 70.16200000000001 11836 5918
N 2073.33 69.30240000000001 16.0232 11837 5919
N 2073.53 68.1892 15.9408 11838 5919
N 1637.41 96.1438 11.2872 11839 5920
N 1638.31 95.55410000000001 10.9807 11840 5920
N 2108.27 14.6298 111.539 11841 5921
N 2107.3 14.2088 111.181 11842 5921
N 2135.07 34.9025 31.0379 11843 5922
N 2134.91 33.9997 31.6538 11844 5922
N 2067.49 133.499 114.142 11845 5923
N 2068.49 133.251 114.6 11846 5923
N 2315.61 107.673 104.806 11847 5924
N 2316.72 107.715 104.732 11848 5924
N 2489.45 128.325 102.903 11849 5925
N 2488.97 129.053 102.204 11850 5925
N 2363.07 136.047 21.3489 11851 5926
N 2362.98 137.132 21.6532 11852 5926
N 2055.15 110.899 68.6718 11853 5927
N 2054.08 110.555 68.68000000000001 11854 5927
N 1727.46 127.387 109.487 11855 5928
N 1727.3 126.81 108.545 11856 5928
N 2193.74 62.6267 65.9653 11857 5929
N 2193.51 61.5419 66.0038 11858 5929
N 2213.44 16.3122 44.4091 11859 5930
N 2212.73 17.1282 44.1367 11860 5930
N 2383.63 104.47 92.0444 11861 5931
N 2383.56 104.203 90.95999999999999 11862 5931
N 2034.81 41.6028 109.305 11863 5932
N 2034.33 41.5372 110.327 11864 5932
N 1887.71 147.317 29.0294 11865 5933
N 1888.28 148.097 28.476 11866 5933
N 1971.49 82.0338 29.9969 11867 5934
N 1970.46 81.8703 29.5953 11868 5934
N 2588.31 112.548 104.403 11869 5935
N 2588.98 113.268 103.874 11870 5935
N 2191.58 79.02719999999999 96.2548 11871 5936
N 2191.51 78.3408 97.1375 11872 5936
N 2490.44 125.411 95.9092 11873 5937
N 2491.16 126.265 95.77370000000001 11874 5937
N 2053.82 102.59 148.886 11875 5938
N 2054.8 102.363 148.396 11876 5938
N 2265.69 54.8508 122.824 11877 5939
N 2266.53 54.302 122.344 11878 5939
N 1972.55 39.6673 55.9825 11879 5940
N 1971.71 40.3455 55.6949 11880 5940
N 2350.5 12.9602 143.607 11881 5941
N 2350.95 13.9893 143.606 11882 5941
N 1833.37 59.8594 7.67603 11883 5942
N 1832.66 59.1945 7.13657 11884 5942
N 2253.22 12.4187 84.99169999999999 11885 5943
N 2252.27 12.6126 84.4547 11886 5943
N 1882 50.0863 88.8646 11887 5944
N 1883.11 50.1927 88.9819 11888 5944
N 2031.99 48.454 113.204 11889 5945
N 2031.19 49.1936 112.957 11890 5945
N 2264.07 78.43980000000001 89.6728 11891 5946
N 2263.78 78.9537 88.7161 11892 5946
N 1646.73 10.9323 70.1707 11893 5947
N 1646.49 10.269 71.029 11894 5947
N 2358.53 10.3182 103.278 11895 5948
N 2358.14 11.2481 103.762 11896 5948
N 2028.15 72.2047 28.1221 11897 5949
N 2028.36 71.3767 28.8234 11898 5949
N 2466.16 64.0692 56.1126 11899 5950
N 2466.12 64.7694 56.984 11900 5950
N 1609.67 132.009 48.4364 11901 5951
N 1610.21 132.024 49.4231 11902 5951
N 1922.23 65.6806 14.5652 11903 5952
N 1922.57 66.73950000000001 14.4669 11904 5952
N 2185.95 23.2633 132.658 11905 5953
N 2185.39 22.3068 132.454 11906 5953
N 2758.48 84.5453 46.6203 11907 5954
N 2759.12 84.73 45.7182 11908 5954
N 1696.92 137.514 74.1661 11909 5955
N 1697 138.581 73.846 11910 5955
N 2544.39 81.82259999999999 62.5865 11911 5956
N 2543.96 80.86020000000001 62.2491 11912 5956
N 2027.32 133.432 93.384 11913 5957
N 2026.96 132.387 93.47069999999999 11914 5957
N 2201.84 99.2021 34.2945 11915 5958
N 2202.05 99.5522 35.3314 11916 5958
N 1867.04 110.451 117.952 11917 5959
N 1866.83 109.931 116.983 11918 5959
N 1784.81 135.214 36.0284 11919 5960
N 1785.72 135.508 36.6126 11920 5960
N 2318.97 11.1592 34.597 11921 5961
N 2319.94 11.4693 34.1323 11922 5961
N 2515.37 91.6041 119.08 11923 5962
N 2516.25 90.9233 119.13 11924 5962
N 2127.54 126.814 112.649 11925 5963
N 2128.27 126.454 113.422 11926 5963
N 1766.48 29.7444 42.3202 11927 5964
N 1766.52 29.3304 43.3569 11928 5964
N 2296.75 1.71153 95.3449 11929 5965
N 2297.3 0.755424 95.5363 11930 5965
N 2592.58 81.495 80.76739999999999 11931 5966
N 2591.95 81.9183 81.5731 11932 5966
N 2366.16 61.2865 73.0424 11933 5967
N 2367.21 61.1727 73.4323 11934 5967
N 2497.53 100.995 69.19329999999999 11935 5968
N 2496.55 101.523 69.1384 11936 5968
N 1997.56 129.228 126.12 11937 5969
N 1996.69 128.567 125.922 11938 5969
N 2180.32 39.9655 2.97903 11939 5970
N 2180.93 40.7248 3.52233 11940 5970
N 2007.08 108.759 105.37 11941 5971
N 2006.13 109.332 105.308 11942 5971
N 2232.45 109.258 88.7658 11943 5972
N 2232.16 109.126 89.8373 11944 5972
N 2321.64 28.8027 125.477 11945 5973
N 2320.68 29.4021 125.405 11946 5973
N 1975.36 145.171 0.709784 11947 5974
N 1974.34 145.02 1.14725 11948 5974
N 1722.7 37.9029 104.774 11949 5975
N 1723.56 37.7001 105.457 11950 5975
N 1740.37 5.77572 81.3764 11951 5976
N 1741 6.59248 80.9171 11952 5976
N 2042.18 46.7013 94.86069999999999 11953 5977
N 2042.85 47.5296 94.4907 11954 5977
N 2041.26 44.5344 5.30781 11955 5978
N 2040.44 45.0047 4.70002 11956 5978
N 1968.78 134.23 34.1976 11957 5979
N 1968.69 133.212 34.6022 11958 5979
N 2626.34 130.843 32.5486 11959 5980
N 2625.96 129.832 32.8818 11960 5980
N 2292.7 2.18723 107.648 11961 5981
N 2292.92 1.138 107.322 11962 5981
N 2330.07 110.576 77.6396 11963 5982
N 2329.94 109.604 78.1921 11964 5982
N 2093.48 23.8479 114.186 11965 5983
N 2093.22 24.8588 113.761 11966 5983
N 1711.76 142.152 51.2194 11967 5984
N 1712.16 141.104 51.3219 11968 5984
N 2500.79 85.13209999999999 4.10431 11969 5985
N 2500.41 85.1305 3.04713 11970 5985
N 1633.92 21.5582 87.4598 11971 5986
N 1633.56 22.4553 86.9088 11972 5986
N 1802.04 121.806 21.7435 11973 5987
N 1802.39 121.425 22.743 11974 5987
N 2013.51 108.896 117.251 11975 5988
N 2012.96 108.676 116.304 11976 5988
N 1751.82 2.9498 7.33939 11977 5989
N 1750.84 3.46448 7.17573 11978 5989
N 1740.71 25.9354 81.3415 11979 5990
N 1740.42 24.8648 81.2139 11980 5990
N 2662.23 106.246 143.104 11981 5991
N 2661.31 106.882 143.165 11982 5991
N 1813.06 147.767 9.301439999999999 11983 5992
N 1812.42 147.137 8.633240000000001 11984 5992
N 2116.71 147.354 93.8895 11985 5993
N 2116.72 146.299 93.52679999999999 11986 5993
N 2122.56 56.8806 132.927 11987 5994
N 2121.71 57.3233 132.342 11988 5994
N 2369.51 32.3639 47.4935 11989 5995
N 2369.94 32.1853 46.4759 11990 5995
N 1877.46 128.729 60.7659 11991 5996
N 1877.2 128.818 61.8528 11992 5996
N 2234.09 103.075 98.8938 11993 5997
N 2233.92 103.641 97.9256 11994 5997
N 2575.26 76.7225 18.594 11995 5998
N 2575.42 77.655 18.0093 11996 5998
N 1960.18 102.587 100.789 11997 5999
N 1959.55 101.889 100.187 11998 5999
N 2240.92 80.1978 69.6842 11999 6000
N 2240.34 81.11839999999999 69.93300000000001 12000 6000
N 2135.08 122.442 4.62285 12001 6001
N 2135.48 121.394 4.68936 12002 6001
N 2698.63 31.2123 58.1916 12003 6002
N 2699.31 31.4928 59.0381 12004 6002
N 2434.51 110.118 122.02 12005 6003
N 2434.82 110.523 123.009 12006 6003
N 2410.91 143.459 65.1176 12007 6004
N 2410.53 142.623 65.7516 12008 6004
N 2062.25 107.318 110.065 12009 6005
N 2062.5 106.887 109.063 12010 6005
N 2172.52 141.631 53.9065 12011 6006
N 2172.35 140.724 53.2695 12012 6006
N 2277.03 18.691 143.617 12013 6007
N 2278.12 18.9376 143.556 12014 6007
N 2341.65 72.9918 125.062 12015 6008
N 2342.38 73.58620000000001 124.468 12016 6008
N 2077.47 94.17700000000001 81.7495 12017 6009
N 2078.2 94.9199 81.3412 12018 6009
N 1967.43 78.7777 33.08 12019 6010
N 1966.64 78.98050000000001 32.3165 12020 6010
N 2339.32 113.023 130.516 12021 6011
N 2339.79 113.08 131.53 12022 6011
N 2022.18 98.477 134.615 12023 6012
N 2022.38 99.2989 133.882 12024 6012
N 1761.41 94.2749 143.774 12025 6013
N 1761.8 93.6357 144.602 12026 6013
N 2276.41 120.75 137.962 12027 6014
N 2277.49 120.458 137.882 12028 6014
N 2378.43 110.198 92.5234 12029 6015
N 2378.65 111.075 93.1769 12030 6015
N 2324.21 32.7066 71.6151 12031 6016
N 2324.17 31.8821 70.86409999999999 12032 6016
N 1829.71 94.4259 5.72352 12033 6017
N 1829.83 95.4695 6.10701 12034 6017
N 3087.07 100.899 6.61102 12035 6018
N 3086.68 101.544 5.78378 12036 6018
N 2070.18 100.651 49.0251 12037 6019
N 2069.49 101.508 49.1813 12038 6019
N 2054 12.3104 92.7161 12039 6020
N 2055 12.6655 92.3652 12040 6020
N 2114.17 69.2251 7.62566 12041 6021
N 2114.51 69.3866 6.58005 12042 6021
N 2286.01 71.8798 69.7705 12043 6022
N 2286.76 72.6131 70.1362 12044 6022
N 2269.96 105.024 139.352 12045 6023
N 2270.3 104.07 139.826 12046 6023
N 2380.98 78.7175 71.9178 12047 6024
N 2381.19 78.77630000000001 73.0081 12048 6024
N 2464.16 40.7865 35.9214 12049 6025
N 2464.03 40.8244 34.8077 12050 6025
N 2408.16 54.1066 123.107 12051 6026
N 2408.22 55.1856 122.805 12052 6026
N 2033.53 4.06567 51.2954 12053 6027
N 2033.44 3.58639 50.2853 12054 6027
N 2084.99 44.4253 59.1611 12055 6028
N 2085.87 45.0617 59.4253 12056 6028
N 2332.65 110.334 144.239 12057 6029
N 2333.72 110.659 144.135 12058 6029
N 2001.37 79.48269999999999 2.42448 12059 6030
N 2002.02 80.3896 2.49753 12060 6030
N 2265.39 46.166 32.7013 12061 6031
N 2265.88 46.7452 33.5285 12062 6031
N 2005.37 7.07175 37.9316 12063 6032
N 2005.97 6.36936 37.303 12064 6032
N 2583.34 132.951 135.141 12065 6033
N 2582.66 133.4 135.906 12066 6033
N 2608.88 21.9488 115.233 12067 6034
N 2608.36 22.329 114.334 12068 6034
N 2294.84 71.10680000000001 125.31 12069 6035
N 2294.41 72.1276 125.515 12070 6035
N 1995.92 21.5676 135.738 12071 6036
N 1995.93 22.678 135.878 12072 6036
N 2861.3 88.24169999999999 96.5835 12073 6037
N 2861.58 87.17870000000001 96.8103 12074 6037
N 2520.82 19.8206 100.167 12075 6038
N 2520.16 19.6553 99.2818 12076 6038
N 2171.7 93.1521 64.7864 12077 6039
N 2170.64 93.0882 65.1251 12078 6039
N 2015.67 137.4 30.0034 12079 6040
N 2015.77 138.519 29.9652 12080 6040
N 2316.76 85.55240000000001 112.183 12081 6041
N 2316.26 86.2349 111.457 12082 6041
N 2350.79 147.255 46.0458 12083 6042
N 2350.95 148.257 46.4681 12084 6042
N 1954.45 30.4747 143.954 12085 6043
N 1954.5 31.0037 142.975 12086 6043
N 2100.42 46.9154 71.502 12087 6044
N 2100.65 46.9417 70.4084 12088 6044
N 1872.25 102.204 75.5729 12089 6045
N 1871.35 101.642 75.95099999999999 12090 6045
N 2167.81 31.2429 62.6659 12091 6046
N 2168.34 30.6124 61.9023 12092 6046
N 1978.38 67.2253 146.405 12093 6047
N 1979.49 67.2912 146.233 12094 6047
N 2087.58 7.95701 146.084 12095 6048
N 2086.53 7.74033 145.76 12096 6048
N 1884.34 18.8966 145.605 12097 6049
N 1884.55 19.6871 144.831 12098 6049
N 2065.99 111.541 128.443 12099 6050
N 2065.51 112.544 128.568 12100 6050
N 2069.46 120.848 146.529 12101 6051
N 2069.2 120.285 145.61 12102 6051
N 2282.43 68.6371 75.3278 12103 6052
N 2283.15 67.9462 75.86450000000001 12104 6052
N 2294.02 72.9075 78.9991 12105 6053
N 2294.7 73.3964 78.2543 12106 6053
N 1650.34 120.106 11.6054 12107 6054
N 1650.37 119.576 12.5895 12108 6054
N 2054.02 98.5252 6.17114 12109 6055
N 2054.16 97.8533 5.27559 12110 6055
N 2482.54 48.6521 44.5829 12111 6056
N 2482.99 48.3155 45.547 12112 6056
N 2236.95 67.19580000000001 27.1108 12113 6057
N 2236.85 68.27209999999999 27.4014 12114 6057
N 2285.99 101.539 110.049 12115 6058
N 2286.6 102.38 109.627 12116 6058
N 2279.62 2.56457 81.50360000000001 12117 6059
N 2280.08 2.15323 80.58029999999999 12118 6059
N 2456.69 144.084 90.51519999999999 12119 6060
N 2455.78 143.43 90.5534 12120 6060
N 2521.53 108.352 80.08499999999999 12121 6061
N 2520.46 108.149 79.8017 12122 6061
N 1743.61 65.36109999999999 94.7456 12123 6062
N 1743.81 64.8077 95.7076 12124 6062
N 2661.68 9.387650000000001 132.593 12125 6063
N 2662.44 10.1848 132.64 12126 6063
N 2068.9 139.706 97.0996 12127 6064
N 2067.82 139.72 96.8387 12128 6064
N 2283.55 97.8047 7.91274 12129 6065
N 2283.04 97.13379999999999 7.16751 12130 6065
N 1642.72 139.167 73.7449 12131 6066
N 1643.36 138.625 74.4843 12132 6066
N 2419.67 81.53830000000001 65.2148 12133 6067
N 2419.34 82.4147 64.60429999999999 12134 6067
N 2143.75 27.8386 21.8552 12135 6068
N 2142.82 27.8519 22.4816 12136 6068
N 2329.21 107.374 60.352 12137 6069
N 2328.57 108.28 60.2487 12138 6069
N 2633.06 10.8481 22.8839 12139 6070
N 2632.31 11.4451 23.4409 12140 6070
N 2449.79 8.99611 110.034 12141 6071
N 2450.61 9.31982 109.356 12142 6071
N 2083.13 121.97 81.06180000000001 12143 6072
N 2082.78 120.99 80.6615 12144 6072
N 2241.38 67.3304 32.4906 12145 6073
N 2241.55 68.2272 33.134 12146 6073
N 2225.44 53.0503 72.495 12147 6074
N 2224.49 52.6806 72.9455 12148 6074
N 1816.94 85.88030000000001 140.374 12149 6075
N 1817.85 85.7901 141.026 12150 6075
N 2227.25 29.4837 37.5882 12151 6076
N 2227.66 29.9084 38.5341 12152 6076
N 1931.53 9.889110000000001 53.5471 12153 6077
N 1931.69 9.27036 54.4626 12154 6077
N 2379.37 132.653 40.5037 12155 6078
N 2379.54 131.859 39.738 12156 6078
N 2556.51 44.1262 148.453 12157 6079
N 2555.78 43.6565 147.733 12158 6079
N 2165.98 122.505 65.0339 12159 6080
N 2165.65 123.14 64.1681 12160 6080
N 2539.23 51.0848 55.8937 12161 6081
N 2539.86 51.9825 56.0754 12162 6081
N 2510.01 104.107 73.90519999999999 12163 6082
N 2509.64 105.024 73.4191 12164 6082
N 2200.34 12.838 90.1523 12165 6083
N 2199.59 12.5933 89.3552 12166 6083
N 2325.27 71.39790000000001 101.484 12167 6084
N 2325.67 72.1698 100.796 12168 6084
N 2115.84 21.1642 35.2679 12169 6085
N 2114.74 20.9742 35.1813 12170 6085
N 2045.26 125.06 104.772 12171 6086
N 2044.54 124.753 103.973 12172 6086
N 2665.46 49.7666 25.3727 12173 6087
N 2664.52 49.2374 25.6667 12174 6087
N 1705.44 107.032 95.7238 12175 6088
N 1704.74 107.216 96.58159999999999 12176 6088
N 2167.63 110.236 17.5429 12177 6089
N 2167.05 109.36 17.9589 12178 6089
N 2273.5 128.64 115.254 12179 6090
N 2274.05 129.391 114.615 12180 6090
N 2513.3 58.4441 75.8823 12181 6091
N 2512.25 58.7264 75.65949999999999 12182 6091
N 2543.11 90.6207 122.571 12183 6092
N 2543.22 89.92319999999999 123.442 12184 6092
N 2465.77 3.62977 106.689 12185 6093
N 2464.71 4.00009 106.583 12186 6093
N 1823.96 59.1731 66.3189 12187 6094
N 1823.15 58.5319 65.905 12188 6094
N 2920.44 34.5169 147.252 12189 6095
N 2920.09 34.819 148.273 12190 6095
N 1914.12 5.14733 94.4614 12191 6096
N 1913.68 6.01185 95.0194 12192 6096
N 2256.29 146.672 83.66719999999999 12193 6097
N 2256.45 147.212 84.6345 12194 6097
N 2407.07 95.0585 96.7863 12195 6098
N 2406.62 95.0094 97.8205 12196 6098
N 2718.81 54.2333 140.361 12197 6099
N 2718.03 53.4429 140.497 12198 6099
N 2193.74 109.225 149.255 12199 6100
N 2194.03 108.725 0.214378 12200 6100
N 1933.02 144.601 25.5257 12201 6101
N 1933.76 143.767 25.4864 12202 6101
N 1663.91 31.4755 21.3162 12203 6102
N 1663.79 31.4863 22.4296 12204 6102
N 2162.16 148.811 54.7122 12205 6103
N 2161.08 148.636 54.9373 12206 6103
N 2211.42 100.695 83.26260000000001 12207 6104
N 2212.18 101.321 83.78870000000001 12208 6104
N 2432.93 106.858 99.1168 12209 6105
N 2432.85 105.807 98.78919999999999 12210 6105
N 2108.04 117.091 15.6984 12211 6106
N 2107.97 118.049 16.2671 12212 6106
N 2605.57 148.711 103.106 12213 6107
N 2606.27 149.446 103.574 12214 6107
N 1711.83 4.4502 109.062 12215 6108
N 1712.73 3.79638 109.167 12216 6108
N 1854.58 60.6904 139.093 12217 6109
N 1853.71 60.077 138.738 12218 6109
N 2285.31 100.52 91.0119 12219 6110
N 2285.09 101.538 90.6131 12220 6110
N 2190.21 51.2552 2.80404 12221 6111
N 2189.45 50.6017 3.31552 12222 6111
N 1921.79 137.307 132.357 12223 6112
N 1921.09 137.194 133.228 12224 6112
N 2432.19 93.0757 82.24930000000001 12225 6113
N 2431.44 92.283 81.99979999999999 12226 6113
N 1789.57 10.6279 128.919 12227 6114
N 1790.39 11.0493 129.564 12228 6114
N 1970.52 48.2715 113.829 12229 6115
N 1970.67 48.5055 112.746 12230 6115
N 1839 0.629421 6.5247 12231 6116
N 1839.29 149.863 5.77891 12232 6116
N 2459.57 90.31950000000001 74.98480000000001 12233 6117
N 2458.63 89.7255 75.09310000000001 12234 6117
N 2800.55 34.4849 17.7339 12235 6118
N 2800.58 35.0869 16.8012 12236 6118
N 2182.24 20.5581 146.943 12237 6119
N 2181.32 19.9162 146.843 12238 6119
N 2208.84 46.4361 12.6596 12239 6120
N 2209.08 47.4939 12.9009 12240 6120
N 2332.95 72.0782 102.576 12241 6121
N 2332.73 72.372 103.625 12242 6121
N 2631.78 141.779 48.9856 12243 6122
N 2632.59 142.242 48.3618 12244 6122
N 2160.27 52.6207 140.264 12245 6123
N 2160.27 51.7065 139.625 12246 6123
N 1573.22 2.52009 43.1977 12247 6124
N 1573.78 3.25073 43.8511 12248 6124
N 2418.73 61.2803 123.972 12249 6125
N 2419.18 62.3045 123.895 12250 6125
N 2213.5 120.405 34.5359 12251 6126
N 2213.93 121.228 35.1532 12252 6126
N 1999.48 118.284 49.0411 12253 6127
N 1999.49 117.815 48.027 12254 6127
N 2269.51 146.584 106.704 12255 6128
N 2269.51 145.477 106.574 12256 6128
N 2294.71 131.81 120.576 12257 6129
N 2294.51 130.765 120.229 12258 6129
N 2178.29 4.95215 87.24160000000001 12259 6130
N 2177.81 4.71972 86.2504 12260 6130
N 2295.99 89.0275 90.86750000000001 12261 6131
N 2296.47 88.515 91.7406 12262 6131
N 2237.37 121.372 42.8552 12263 6132
N 2236.64 121.328 42.0002 12264 6132
N 2461.42 11.9714 11.4782 12265 6133
N 2462.24 11.3823 10.99 12266 6133
N 2235.11 39.1126 142.614 12267 6134
N 2236.14 39.1576 143.047 12268 6134
N 2195.79 0.0327654 21.6712 12269 6135
N 2196.66 0.0484631 20.988 12270 6135
N 1930.14 9.122350000000001 80.1427 12271 6136
N 1930.33 9.956390000000001 79.4222 12272 6136
N 2360.73 49.1186 34.0188 12273 6137
N 2360.45 48.6323 33.0655 12274 6137
N 2026.26 125.218 23.6307 12275 6138
N 2026.02 124.213 23.2045 12276 6138
N 1810.24 73.4367 11.1189 12277 6139
N 1810.4 74.4829 10.7987 12278 6139
N 2328.76 63.6548 107.051 12279 6140
N 2327.85 63.3222 107.617 12280 6140
N 2151.45 104.518 83.5003 12281 6141
N 2151.24 103.435 83.3115 12282 6141
N 2020.28 43.2096 115.398 12283 6142
N 2021.15 42.8868 114.801 12284 6142
N 1892.72 120.143 127.173 12285 6143
N 1892.15 119.294 127.608 12286 6143
N 2253.04 37.1307 100.623 12287 6144
N 2253.66 36.2054 100.595 12288 6144
N 1964.16 49.5835 49.2975 12289 6145
N 1963.66 48.6176 49.4383 12290 6145
N 2204.12 76.05200000000001 113.55 12291 6146
N 2204.52 77.00960000000001 113.989 12292 6146
N 1962.91 128.922 2.79654 12293 6147
N 1962.98 129.67 3.62625 12294 6147
N 2290.78 138.74 40.4501 12295 6148
N 2290.64 139.783 40.0979 12296 6148
N 2033.8 115.453 26.7215 12297 6149
N 2034.2 115.176 27.7325 12298 6149
N 2102 90.17489999999999 80.4385 12299 6150
N 2101.7 90.5896 79.44410000000001 12300 6150
N 3061 3.15718 46.8838 12301 6151
N 3060.05 3.29889 46.3006 12302 6151
N 1738.12 84.0003 145.336 12303 6152
N 1738.1 82.9365 145.693 12304 6152
N 2516.72 21.0974 139.495 12305 6153
N 2516.13 21.651 138.74 12306 6153
N 1935.16 9.35955 66.0765 12307 6154
N 1934.86 9.644410000000001 65.03279999999999 12308 6154
N 1962.59 96.57089999999999 115.833 12309 6155
N 1963.29 96.85590000000001 114.981 12310 6155
N 1861.77 147.319 46.6755 12311 6156
N 1862.74 146.838 46.9335 12312 6156
N 2022.82 102.959 60.8094 12313 6157
N 2021.87 103.48 60.5235 12314 6157
N 2295.8 124.094 118.872 12315 6158
N 2295.15 123.244 118.504 12316 6158
N 2562.08 83.4777 134.677 12317 6159
N 2562.19 83.2833 135.773 12318 6159
N 2069.1 133.862 42.7918 12319 6160
N 2069.3 133.864 41.693 12320 6160
N 1854.71 111.17 13.1846 12321 6161
N 1855.61 110.63 12.8019 12322 6161
N 2540.59 13.1573 112.712 12323 6162
N 2539.64 13.3211 113.286 12324 6162
N 2395.04 68.5553 65.6846 12325 6163
N 2394.19 68.6079 64.9571 12326 6163
N 2287.94 1.53078 20.7192 12327 6164
N 2287.78 0.421305 20.6597 12328 6164
N 2096.52 2.84668 107.682 12329 6165
N 2096.34 3.9454 107.609 12330 6165
N 2351.65 149.376 24.1876 12331 6166
N 2351.78 148.764 25.1161 12332 6166
N 2960.99 17.7196 146.234 12333 6167
N 2959.9 17.4945 146.154 12334 6167
N 2500.86 90.4948 68.1923 12335 6168
N 2501.49 90.2186 69.0825 12336 6168
N 2508.45 21.4885 61.0367 12337 6169
N 2508.73 22.3559 61.6847 12338 6169
N 2664.54 142.476 46.597 12339 6170
N 2663.87 142.715 47.4598 12340 6170
N 2616.05 70.4469 118.375 12341 6171
N 2615.7 69.639 117.688 12342 6171
N 2229.15 24.2336 63.8281 12343 6172
N 2229.43 25.0179 63.0779 12344 6172
N 2325.5 82.5095 107.878 12345 6173
N 2325.41 82.2206 106.795 12346 6173
N 2397.17 17.5303 142.293 12347 6174
N 2396.38 17.1487 142.982 12348 6174
N 2444.68 74.7547 128.953 12349 6175
N 2445.38 75.46769999999999 128.459 12350 6175
N 2166.8 26.5782 51.3119 12351 6176
N 2165.94 26.8164 50.6528 12352 6176
N 2441.78 95.4186 141.813 12353 6177
N 2441.85 95.3674 140.697 12354 6177
N 2035.62 90.76349999999999 8.20581 12355 6178
N 2034.86 90.45659999999999 8.96204 12356 6178
N 1890.23 60.1134 6.01014 12357 6179
N 1889.68 59.4463 5.30239 12358 6179
N 2413.23 11.2181 144.445 12359 6180
N 2412.95 11.9273 145.261 12360 6180
N 2561.29 80.593 10.4809 12361 6181
N 2562.07 80.5455 9.677149999999999 12362 6181
N 2226.64 77.0908 127.523 12363 6182
N 2227.29 76.7927 128.37 12364 6182
N 2911.68 139.287 140.836 12365 6183
N 2910.67 139.168 141.29 12366 6183
N 2331.62 105.173 116.454 12367 6184
N 2331.56 105.216 117.574 12368 6184
N 2578.43 109.51 117.176 12369 6185
N 2578.51 109.96 118.196 12370 6185
N 2502.95 37.4216 118.216 12371 6186
N 2502.01 37.36 118.818 12372 6186
N 1913.45 4.3422 27.6061 12373 6187
N 1914.11 3.44449 27.5914 12374 6187
N 2344.84 143.694 66.3436 12375 6188
N 2344.19 143.135 65.6438 12376 6188
N 1610.94 60.7795 34.5282 12377 6189
N 1611.65 60.2221 33.8531 12378 6189
N 2455.39 5.64146 48.9405 12379 6190
N 2455.23 6.61631 48.4169 12380 6190
N 2434.67 58.4481 5.36522 12381 6191
N 2434.37 58.6345 6.42733 12382 6191
N 2217.39 98.05329999999999 16.0695 12383 6192
N 2217.28 97.8557 14.9738 12384 6192
N 2469.19 125.816 144.023 12385 6193
N 2468.84 126.866 144.12 12386 6193
N 2171.32 73.685 1.94055 12387 6194
N 2170.42 74.3223 2.00813 12388 6194
N 1859.92 17.8691 126.619 12389 6195
N 1860.17 18.897 126.974 12390 6195
N 2450.74 131.216 61.9294 12391 6196
N 2451.02 132.214 61.5258 12392 6196
N 2412.42 83.2671 1.8101 12393 6197
N 2412 82.2645 2.00904 12394 6197
N 2423.68 143.166 50.8503 12395 6198
N 2424.37 142.395 50.4224 12396 6198
N 2840.3 108.269 121.085 12397 6199
N 2841.34 108.656 121.025 12398 6199
N 2612.13 17.5722 63.3299 12399 6200
N 2612.79 18.4137 63.0143 12400 6200
N 2083.28 112.929 108.999 12401 6201
N 2082.97 112.961 110.078 12402 6201
N 2329.58 75.9967 100.373 12403 6202
N 2328.93 75.2389 100.866 12404 6202
N 1996.52 138.823 12.0297 12405 6203
N 1996.2 138.549 10.9928 12406 6203
N 2073.41 29.8697 117.976 12407 6204
N 2073.07 29.0168 118.617 12408 6204
N 2376.05 74.19750000000001 120.489 12409 6205
N 2374.95 73.9833 120.657 12410 6205
N 2737.29 26.5809 100.886 12411 6206
N 2738.39 26.4179 100.905 12412 6206
N 2277.95 2.5577 38.4705 12413 6207
N 2278.12 1.47209 38.3252 12414 6207
N 2311.8 140.259 20.9864 12415 6208
N 2311.43 139.234 21.2247 12416 6208
N 2327.64 58.06 55.3044 12417 6209
N 2326.78 57.524 55.7727 12418 6209
N 2660.04 124.047 104.627 12419 6210
N 2659.98 124.911 105.323 12420 6210
N 2395.17 96.047 13.2032 12421 6211
N 2396.15 95.74379999999999 13.6123 12422 6211
N 2277.8 128.223 90.89830000000001 12423 6212
N 2278.28 127.721 91.7756 12424 6212
N 2297.36 132.821 56.933 12425 6213
N 2296.54 132.193 56.478 12426 6213
N 1851.83 143.845 30.1574 12427 6214
N 1851.94 142.739 30.3087 12428 6214
N 2709.52 121.939 5.94606 12429 6215
N 2709.36 122.792 6.64235 12430 6215
N 1972.83 76.3172 7.53812 12431 6216
N 1972 77.04949999999999 7.69873 12432 6216
N 2648.24 142.172 52.5243 12433 6217
N 2649.34 142.287 52.6684 12434 6217
N 2053.6 34.5794 69.5505 12435 6218
N 2054.28 33.9472 70.18899999999999 12436 6218
N 2294.67 23.9884 108.476 12437 6219
N 2294.82 23.6475 109.528 12438 6219
N 2401.45 130.981 122.688 12439 6220
N 2401.5 131.941 123.258 12440 6220
N 2370.26 55.3961 113.195 12441 6221
N 2370.63 56.4342 112.967 12442 6221
N 2013.29 86.71899999999999 79.70529999999999 12443 6222
N 2012.25 87.1336 79.7473 12444 6222
N 2564.12 40.5761 93.0284 12445 6223
N 2564.87 39.8891 92.57470000000001 12446 6223
N 1857.33 113.956 29.0213 12447 6224
N 1857.49 113.044 28.3941 12448 6224
N 2443.03 125.667 27.8882 12449 6225
N 2442.77 125.372 28.9375 12450 6225
N 1804.51 47.206 17.2857 12451 6226
N 1805.04 46.9418 18.2391 12452 6226
N 2327.81 27.9781 35.9617 12453 6227
N 2328 28.9829 35.5264 12454 6227
N 2557.31 115.17 91.8158 12455 6228
N 2558.22 115.187 92.4661 12456 6228
N 2353.31 53.4588 0.00406047 12457 6229
N 2353.81 53.9586 149.126 12458 6229
N 2376.8 109.894 34.8046 12459 6230
N 2376.68 111.006 34.9043 12460 6230
N 2398.61 26.1004 52.6499 12461 6231
N 2397.92 25.8756 53.4967 12462 6231
N 2553.44 50.645 131.632 12463 6232
N 2552.89 50.5579 132.595 12464 6232
N 2139.28 128.645 118.128 12465 6233
N 2139.6 129.166 117.192 12466 6233
N 1951.22 32.4202 149.624 12467 6234
N 1950.29 32.3696 149.001 12468 6234
N 2215.7 70.14149999999999 76.55410000000001 12469 6235
N 2215.19 71.09269999999999 76.2424 12470 6235
N 2195.31 87.0536 136.658 12471 6236
N 2195.28 86.93429999999999 137.773 12472 6236
N 2239 11.2784 50.0606 12473 6237
N 2238.39 12.1967 50.2616 12474 6237
N 2222.61 145.034 16.7847 12475 6238
N 2223.2 145.558 17.5557 12476 6238
N 2372.18 120.057 112.851 12477 6239
N 2371.91 120.133 111.781 12478 6239
N 2375.42 36.0682 3.21643 12479 6240
N 2374.89 35.1235 2.93526 12480 6240
N 2727.51 148.269 44.1806 12481 6241
N 2727.11 147.78 45.1035 12482 6241
N 2261.41 91.4892 106.476 12483 6242
N 2260.81 91.5442 105.537 12484 6242
N 2269 82.71429999999999 83.5093 12485 6243
N 2268.98 81.6044 83.5962 12486 6243
N 2109.04 35.3894 5.43393 12487 6244
N 2108.54 36.2961 5.85473 12488 6244
N 2196.77 51.8557 36.9166 12489 6245
N 2197.71 51.4647 36.4502 12490 6245
N 2267.29 5.10227 137.703 12491 6246
N 2268.24 4.51678 137.802 12492 6246
N 2779.76 30.8103 44.0826 12493 6247
N 2780.54 31.5279 44.4477 12494 6247
N 2310.29 13.6117 116.66 12495 6248
N 2310.3 13.6255 115.551 12496 6248
N 2410.21 89.9059 53.5799 12497 6249
N 2409.87 90.93810000000001 53.3331 12498 6249
N 2152.36 37.802 112.768 12499 6250
N 2153.09 37.719 111.924 12500 6250
N 2292.52 54.3857 91.425 12501 6251
N 2292.48 55.4977 91.52079999999999 12502 6251
N 2273.83 25.9776 112.723 12503 6252
N 2274.43 26.8796 113.018 12504 6252
N 2695.43 98.86709999999999 39.0985 12505 6253
N 2695.63 99.9415 38.8501 12506 6253
N 2183.41 112.992 131 12507 6254
N 2182.44 112.451 131.03 12508 6254
N 2123.35 115.065 23.4795 12509 6255
N 2124.35 114.839 23.9228 12510 6255
N 2327.41 34.3716 74.898 12511 6256
N 2326.7 34.8335 75.6293 12512 6256
N 1856.81 126.167 91.5592 12513 6257
N 1855.99 126.437 90.8524 12514 6257
N 2415.49 84.8291 57.2121 12515 6258
N 2415.73 85.91589999999999 57.3499 12516 6258
N 2307.48 66.56829999999999 146.083 12517 6259
N 2307.68 67.66840000000001 146.224 12518 6259
N 2608.14 109.544 66.0316 12519 6260
N 2609.24 109.419 66.2218 12520 6260
N 2266.07 50.3734 113.82 12521 6261
N 2266.01 49.92 112.802 12522 6261
N 2260.86 30.8874 114.226 12523 6262
N 2260.64 29.8979 113.748 12524 6262
N 2540.44 11.3638 105.766 12525 6263
N 2541.1 11.0948 106.644 12526 6263
N 2603.35 9.14293 135.331 12527 6264
N 2602.3 9.05405 135.721 12528 6264
N 2648.98 74.4455 31.5596 12529 6265
N 2649.32 75.41379999999999 31.1219 12530 6265
N 2179.89 80.1174 86.98090000000001 12531 6266
N 2180.51 81.0343 87.1482 12532 6266
N 2032.77 48.0318 1.23016 12533 6267
N 2031.72 48.3398 1.05486 12534 6267
N 2428.39 25.3809 81.57599999999999 12535 6268
N 2428.65 26.4059 81.2119 12536 6268
N 2413.21 108.357 88.83629999999999 12537 6269
N 2412.24 108.565 89.37260000000001 12538 6269
N 2393.6 87.8122 41.4392 12539 6270
N 2392.94 88.7047 41.2546 12540 6270
N 2362.99 6.11569 19.3458 12541 6271
N 2363.4 5.74212 20.3051 12542 6271
N 2682.79 97.0509 44.4645 12543 6272
N 2683.86 97.265 44.2036 12544 6272
N 2497.77 8.323969999999999 145.795 12545 6273
N 2498.74 8.313079999999999 145.238 12546 6273
N 3024.72 116.056 110.973 12547 6274
N 3025.41 116.268 111.831 12548 6274
N 2358.17 111.705 38.6129 12549 6275
N 2358.07 111.685 39.7308 12550 6275
N 2400.82 118.896 97.09950000000001 12551 6276
N 2400.94 118.072 97.8387 12552 6276
N 1936.52 84.8045 2.484 12553 6277
N 1936.94 83.94929999999999 3.07312 12554 6277
N 2404.58 93.06999999999999 19.9194 12555 6278
N 2403.9 92.18210000000001 19.8638 12556 6278
N 2148.02 135.073 20.7313 12557 6279
N 2147.97 134.703 21.7847 12558 6279
N 2166.55 2.45528 107.138 12559 6280
N 2166.01 3.12164 106.416 12560 6280
N 2188.56 100.513 80.26819999999999 12561 6281
N 2187.87 100.892 81.05419999999999 12562 6281
N 2289.29 78.4358 30.8459 12563 6282
N 2289.52 79.47499999999999 31.2101 12564 6282
N 2594.54 30.2195 127.817 12565 6283
N 2594.18 30.1965 128.876 12566 6283
N 2574.51 130.986 14.6101 12567 6284
N 2573.83 131.88 14.6657 12568 6284
N 2379.01 68.4903 34.1689 12569 6285
N 2378.41 69.175 34.834 12570 6285
N 2618.07 16.5501 36.7466 12571 6286
N 2619.16 16.3265 36.9084 12572 6286
N 2542.3 50.1674 73.7205 12573 6287
N 2542.5 51.2687 73.6129 12574 6287
N 2089.52 32.7685 71.0217 12575 6288
N 2088.72 32.4862 70.29340000000001 12576 6288
N 2335.66 98.90389999999999 65.0218 12577 6289
N 2335.2 99.4926 65.8554 12578 6289
N 2306.4 73.4225 140.162 12579 6290
N 2306.69 74.1741 140.93 12580 6290
N 1791.56 6.22234 5.76691 12581 6291
N 1791.41 5.64082 6.70818 12582 6291
N 2512.95 135.134 4.62392 12583 6292
N 2512.65 134.503 3.74057 12584 6292
N 2334.24 148.865 92.4302 12585 6293
N 2335.29 148.496 92.27379999999999 12586 6293
N 2326.79 74.8359 107.831 12587 6294
N 2326.64 75.9442 107.699 12588 6294
N 2016 34.4023 13.7253 12589 6295
N 2016.41 35.0079 14.5727 12590 6295
N 2465.29 106.673 0.310999 12591 6296
N 2466.03 107.216 149.661 12592 6296
N 2075.85 44.4294 13.1119 12593 6297
N 2075.2 44.5635 14.0187 12594 6297
N 2616.5 21.523 66.468 12595 6298
N 2616.75 22.6094 66.49679999999999 12596 6298
N 2036.52 138.626 63.6618 12597 6299
N 2036.28 139.495 63.0028 12598 6299
N 2433.41 110.832 148.476 12599 6300
N 2432.88 110.645 147.517 12600 6300
N 2417.49 58.2943 74.6844 12601 6301
N 2418.31 57.9568 75.3736 12602 6301
N 2106.65 100.112 24.5659 12603 6302
N 2105.7 99.7941 24.0855 12604 6302
N 1993.36 126.411 44.427 12605 6303
N 1993.78 125.41 44.149 12606 6303
N 2267.85 80.4241 92.5478 12607 6304
N 2266.76 80.1785 92.6347 12608 6304
N 2044.81 56.6667 18.6131 12609 6305
N 2044.31 55.7879 18.1354 12610 6305
N 1857.41 101.119 91.4496 12611 6306
N 1857 100.616 92.3638 12612 6306
N 2274.12 2.04075 118.656 12613 6307
N 2273.46 1.65087 117.841 12614 6307
N 2122.18 69.0414 115.29 12615 6308
N 2121.06 68.9957 115.216 12616 6308
N 2179.77 3.55301 37.9499 12617 6309
N 2179.59 2.45514 38.056 12618 6309
N 2640.31 72.9258 134.736 12619 6310
N 2639.28 72.5181 134.574 12620 6310
N 2440.05 76.3459 7.92334 12621 6311
N 2440.31 77.0514 8.75853 12622 6311
N 2204.35 61.8031 64.44459999999999 12623 6312
N 2203.49 61.203 64.8439 12624 6312
N 1713.7 1.10194 85.34699999999999 12625 6313
N 1714.7 0.868488 85.7816 12626 6313
N 2140.37 110.165 111.636 12627 6314
N 2141.47 110.05 111.598 12628 6314
N 1925.27 134.107 76.11499999999999 12629 6315
N 1925.53 133.263 76.803 12630 6315
N 2393.8 125.61 118.807 12631 6316
N 2393.8 124.519 118.612 12632 6316
N 2683.28 23.7621 6.35611 12633 6317
N 2682.68 24.1344 7.2261 12634 6317
N 1995.99 75.2794 111.997 12635 6318
N 1996.42 75.8199 112.884 12636 6318
N 2207.31 25.121 48.0189 12637 6319
N 2207.06 24.1685 48.5345 12638 6319
N 2768.8 96.2544 20.6004 12639 6320
N 2769.49 95.8493 19.8113 12640 6320
N 2764.45 104.257 128.745 12641 6321
N 2764.04 104.574 129.72 12642 6321
N 2284.8 121.041 50.5877 12643 6322
N 2284.14 121.941 50.4899 12644 6322
N 2579.08 20.7362 80.5463 12645 6323
N 2578.11 20.576 81.0856 12646 6323
N 2519 87.5097 38.6517 12647 6324
N 2520.04 87.7801 38.3193 12648 6324
N 2138.25 57.8957 61.805 12649 6325
N 2138.16 58.9616 61.4802 12650 6325
N 2174.54 17.9115 19.9319 12651 6326
N 2174.47 19.0252 19.8771 12652 6326
N 2420.61 149.95 19.8024 12653 6327
N 2420.66 0.679898 18.9538 12654 6327
N 2088.92 64.9282 89.05759999999999 12655 6328
N 2089.55 65.1331 88.1639 12656 6328
N 2634.17 119.276 60.2884 12657 6329
N 2634.86 118.71 60.9575 12658 6329
N 2916.27 147.953 28.1361 12659 6330
N 2916.38 146.833 28.1019 12660 6330
N 2248.69 130.676 19.1064 12661 6331
N 2248.13 131.175 19.937 12662 6331
N 2511.53 103.454 4.32455 12663 6332
N 2511.33 103.532 5.43062 12664 6332
N 1617.72 46.6839 135.226 12665 6333
N 1618.14 46.5124 136.249 12666 6333
N 2200.67 111.896 133.366 12667 6334
N 2200.44 110.981 133.975 12668 6334
N 2450.15 149.409 147.496 12669 6335
N 2449.63 148.43 147.622 12670 6335
N 2290.57 46.9266 112.663 12671 6336
N 2289.67 47.3136 113.196 12672 6336
N 1925.51 38.4502 82.5442 12673 6337
N 1926.3 39.0011 81.9653 12674 6337
N 2318.45 9.692 38.6464 12675 6338
N 2319.35 10.3248 38.7173 12676 6338
N 2340.42 46.3663 129.242 12677 6339
N 2341.1 45.5464 129.567 12678 6339
N 2062.14 100.035 47.4953 12679 6340
N 2061.84 99.4945 48.4307 12680 6340
N 2118.88 105.636 137.855 12681 6341
N 2118.47 105.844 136.842 12682 6341
N 2241.25 86.1863 85.75700000000001 12683 6342
N 2240.24 85.7306 85.7424 12684 6342
N 2004.64 56.3104 132.847 12685 6343
N 2005.39 56.0583 133.64 12686 6343
N 2157.7 24.9118 11.8296 12687 6344
N 2158.37 25.7849 11.6224 12688 6344
N 1796.48 45.4241 21.2271 12689 6345
N 1797.48 45.0586 20.8936 12690 6345
N 2375.78 67.3732 95.6528 12691 6346
N 2376.12 68.00449999999999 96.5193 12692 6346
N 2468.5 87.25409999999999 32.6548 12693 6347
N 2467.46 87.0458 33.0271 12694 6347
N 2295.94 142.041 48.6507 12695 6348
N 2296.46 142.078 47.6625 12696 6348
N 2062.91 49.0887 116.869 12697 6349
N 2063.08 48.1616 116.258 12698 6349
N 2706.58 98.7471 36.5039 12699 6350
N 2706.3 98.9311 35.4385 12700 6350
N 2349.4 42.9384 71.3668 12701 6351
N 2350.27 42.4513 71.8729 12702 6351
N 2424.85 80.6682 137.906 12703 6352
N 2424.04 79.9691 138.24 12704 6352
N 2774.32 100.715 12.6001 12705 6353
N 2773.61 101.548 12.3681 12706 6353
N 2582.67 72.7984 50.784 12707 6354
N 2582.04 71.9906 50.3439 12708 6354
N 2072.91 25.4706 125.667 12709 6355
N 2073.17 24.5994 126.322 12710 6355
N 2456.51 114.178 91.63209999999999 12711 6356
N 2456.94 115.197 91.7877 12712 6356
N 2549.02 7.91076 69.3665 12713 6357
N 2548.55 8.177049999999999 68.3856 12714 6357
N 2833.27 91.33410000000001 121.206 12715 6358
N 2833.92 91.05029999999999 122.072 12716 6358
N 2019.85 125.145 121.066 12717 6359
N 2019.13 125.186 121.927 12718 6359
N 1845.02 137.42 65.3694 12719 6360
N 1846.02 137.281 65.8476 12720 6360
N 2437.34 116.957 141.211 12721 6361
N 2437.56 115.975 140.723 12722 6361
N 2496.39 15.7514 89.93940000000001 12723 6362
N 2495.82 16.6205 89.5271 12724 6362
N 2456.21 30.9119 49.8757 12725 6363
N 2456.55 30.1057 49.1814 12726 6363
N 2734.45 136.019 143.501 12727 6364
N 2734.6 136.84 144.248 12728 6364
N 2397.56 86.39700000000001 137.359 12729 6365
N 2397.64 87.3325 136.743 12730 6365
N 2201.07 38.2526 65.1271 12731 6366
N 2200.26 38.995 64.89879999999999 12732 6366
N 2654.8 5.06064 30.9926 12733 6367
N 2654.26 4.65336 30.114 12734 6367
N 2630.28 85.0369 96.2803 12735 6368
N 2631.1 84.9906 95.52330000000001 12736 6368
N 2769.72 98.7479 12.2014 12737 6369
N 2769.84 98.30719999999999 13.2263 12738 6369
N 2358.25 36.9963 13.1342 12739 6370
N 2359.14 36.3592 13.366 12740 6370
N 2436.53 80.9091 121.044 12741 6371
N 2436.09 81.7475 120.45 12742 6371
N 2434.8 47.785 22.6464 12743 6372
N 2434.2 46.909 22.9697 12744 6372
N 2164.01 55.1759 55.837 12745 6373
N 2164.28 54.2121 56.3228 12746 6373
N 2206.93 64.5171 95.0877 12747 6374
N 2206.73 64.2216 94.0284 12748 6374
N 2000.53 118.658 85.3621 12749 6375
N 2000.18 118.084 84.4709 12750 6375
N 2323.74 49.2942 8.02248 12751 6376
N 2324.77 49.2811 7.62419 12752 6376
N 1850.48 33.1222 146.481 12753 6377
N 1850.19 34.1937 146.646 12754 6377
N 2096.98 65.8656 115.571 12755 6378
N 2097.99 65.5065 115.256 12756 6378
N 1935.6 34.8192 132.153 12757 6379
N 1935.93 34.8096 133.229 12758 6379
N 2374.8 132.836 13.8997 12759 6380
N 2374.94 131.79 14.2939 12760 6380
N 1988.71 34.8063 113.578 12761 6381
N 1989.59 35.1422 112.956 12762 6381
N 1963.38 98.72239999999999 83.48820000000001 12763 6382
N 1964.29 98.8409 82.8459 12764 6382
N 2576.89 106.834 32.9545 12765 6383
N 2576.98 107.109 34.03 12766 6383
N 2334.6 64.8163 45.9748 12767 6384
N 2335.49 65.0731 45.3418 12768 6384
N 2397.49 128.408 132.731 12769 6385
N 2397.62 127.358 133.08 12770 6385
N 2118.1 88.7543 70.7786 12771 6386
N 2119.05 88.86709999999999 71.34480000000001 12772 6386
N 1844.2 37.133 120.07 12773 6387
N 1844.65 37.6487 120.948 12774 6387
N 2718.36 135.342 67.2341 12775 6388
N 2717.75 135.399 66.3015 12776 6388
N 2161.62 31.7019 41.8706 12777 6389
N 2162.09 32.1579 40.9671 12778 6389
N 2393.27 15.6697 9.096030000000001 12779 6390
N 2392.46 16.4135 8.9255 12780 6390
N 2445.49 126.689 114.703 12781 6391
N 2444.71 127.47 114.744 12782 6391
N 2234.26 26.0816 74.7381 12783 6392
N 2234.09 25.807 73.6551 12784 6392
N 2025.82 42.887 51.1115 12785 6393
N 2025.4 42.967 50.0846 12786 6393
N 2568.52 79.3853 11.5746 12787 6394
N 2568.67 80.1661 10.7888 12788 6394
N 2420.07 65.3909 24.7388 12789 6395
N 2419.27 65.1123 24.0192 12790 6395
N 2153.58 95.5839 47.5303 12791 6396
N 2152.65 96.21639999999999 47.6643 12792 6396
N 2151.68 101.951 17.6239 12793 6397
N 2150.9 101.947 16.8149 12794 6397
N 2304.34 38.6324 77.36750000000001 12795 6398
N 2304.86 39.5996 77.5911 12796 6398
N 2503.05 136.902 140.056 12797 6399
N 2503.97 137.446 140.397 12798 6399
N 2942.02 137.466 81.30670000000001 12799 6400
N 2941.17 138.185 81.3197 12800 6400
N 2550.75 130.88 23.6944 12801 6401
N 2550.31 131.752 23.1492 12802 6401
N 2280.03 83.9362 136.853 12803 6402
N 2280.76 83.4114 136.179 12804 6402
N 1915.83 67.8888 81.9222 12805 6403
N 1915.64 68.60290000000001 82.7615 12806 6403
N 2090.96 54.207 148.51 12807 6404
N 2090.19 53.4586 148.117 12808 6404
N 2441.04 132.556 43.1869 12809 6405
N 2440.74 131.828 42.3974 12810 6405
N 1971.89 60.4757 6.73233 12811 6406
N 1971.82 59.6659 5.96924 12812 6406
N 2368.43 95.2941 91.34180000000001 12813 6407
N 2367.53 95.82729999999999 90.94759999999999 12814 6407
N 2579.36 70.06059999999999 46.7265 12815 6408
N 2578.78 70.8909 46.2259 12816 6408
N 2609.54 111.091 98.95099999999999 12817 6409
N 2609.96 110.416 99.72790000000001 12818 6409
N 2417.16 70.10599999999999 62.4974 12819 6410
N 2418.05 70.6739 62.876 12820 6410
N 2398.58 54.9432 72.6584 12821 6411
N 2398.65 53.9094 72.24469999999999 12822 6411
N 2482.14 89.7007 4.50375 12823 6412
N 2481.17 90.1622 4.80181 12824 6412
N 2393.05 72.3372 6.48822 12825 6413
N 2392.41 73.01600000000001 7.09131 12826 6413
N 2529.81 55.7286 10.094 12827 6414
N 2529.17 55.2239 9.320410000000001 12828 6414
N 2630.4 128.43 36.3883 12829 6415
N 2631.04 128.409 37.2999 12830 6415
N 2558.54 121.501 37.822 12831 6416
N 2558.62 122.576 38.1341 12832 6416
N 1964.79 82.7313 24.9152 12833 6417
N 1964.96 83.7714 24.5766 12834 6417
N 2394.5 84.4512 148.326 12835 6418
N 2394.52 85.57210000000001 148.358 12836 6418
N 2507.1 92.80889999999999 50.0821 12837 6419
N 2507.54 92.84099999999999 49.0514 12838 6419
N 2431.73 109.023 117.302 12839 6420
N 2432.53 109.454 116.645 12840 6420
N 2355.61 29.0243 76.2336 12841 6421
N 2355.51 27.9147 76.3394 12842 6421
N 2297.07 128.479 54.898 12843 6422
N 2297.24 128.449 53.7943 12844 6422
N 2679.94 97.8022 11.8583 12845 6423
N 2679.57 96.7697 12.0523 12846 6423
N 2862 33.0904 107.468 12847 6424
N 2862.69 33.1576 108.346 12848 6424
N 2067.9 62.5044 59.474 12849 6425
N 2068.76 63.2119 59.6194 12850 6425
N 2401.52 94.58759999999999 135.141 12851 6426
N 2402.13 94.8215 134.225 12852 6426
N 2772.79 103.082 129.456 12853 6427
N 2771.87 102.879 130.066 12854 6427
N 2108.81 145.556 144.709 12855 6428
N 2108.26 144.712 145.196 12856 6428
N 2493.02 149.249 34.885 12857 6429
N 2492.05 148.717 34.921 12858 6429
N 2127.19 120.098 66.93680000000001 12859 6430
N 2126.14 120.326 66.6195 12860 6430
N 2460.85 139.244 25.0332 12861 6431
N 2461.04 138.499 24.2213 12862 6431
N 2180.18 124.025 11.1834 12863 6432
N 2179.38 123.541 10.5946 12864 6432
N 2377.54 4.80659 127.427 12865 6433
N 2376.75 4.86285 126.629 12866 6433
N 2486.35 126.809 92.0294 12867 6434
N 2485.76 126.41 92.8746 12868 6434
N 2039.44 43.3696 64.3133 12869 6435
N 2038.51 42.794 64.0736 12870 6435
N 2071.39 101.917 104.588 12871 6436
N 2070.74 102.721 104.17 12872 6436
N 2211.52 117.919 28.3664 12873 6437
N 2211.38 116.834 28.6038 12874 6437
N 2742.48 140.259 39.3596 12875 6438
N 2743.39 140.911 39.3747 12876 6438
N 2068.55 121.087 39.8633 12877 6439
N 2069.05 121.865 39.2398 12878 6439
N 2506.71 120.684 95.68089999999999 12879 6440
N 2506.71 119.585 95.901 12880 6440
N 2379.47 77.72929999999999 121.304 12881 6441
N 2380.38 77.1999 120.926 12882 6441
N 2301.89 47.1635 113.216 12883 6442
N 2301.17 46.3247 113.033 12884 6442
N 2402.91 90.0868 24.8625 12885 6443
N 2403.73 89.38 24.6567 12886 6443
N 2090.31 103.651 1.07583 12887 6444
N 2091.29 103.669 0.531731 12888 6444
N 2325.55 19.9396 99.4978 12889 6445
N 2325.29 19.7156 100.564 12890 6445
N 2054.19 47.1882 48.7395 12891 6446
N 2055.21 47.6315 48.7603 12892 6446
N 2556.08 102.087 143.665 12893 6447
N 2555.25 102.064 142.912 12894 6447
N 2104.14 25.9077 51.6783 12895 6448
N 2104.29 25.3442 50.7251 12896 6448
N 2300.59 18.2673 18.5516 12897 6449
N 2301.32 18.9478 19.059 12898 6449
N 2550.66 54.5286 53.3079 12899 6450
N 2550.14 55.0377 54.1528 12900 6450
N 2521.94 127.286 111.102 12901 6451
N 2521.82 128.203 110.479 12902 6451
N 2206.67 73.0448 20.6706 12903 6452
N 2207.01 72.2487 21.377 12904 6452
N 1687.12 4.25326 144.668 12905 6453
N 1686.87 4.04645 143.591 12906 6453
N 2498.1 19.0183 32.3231 12907 6454
N 2497.99 18.0038 31.8841 12908 6454
N 2279.9 147.336 44.469 12909 6455
N 2279.42 146.751 43.6537 12910 6455
N 2230.68 14.0303 116.605 12911 6456
N 2230.42 14.1957 115.531 12912 6456
N 1953.16 4.68267 95.6974 12913 6457
N 1953.49 3.89931 94.9704 12914 6457
N 2668.73 59.2971 145.946 12915 6458
N 2669.69 59.0064 145.46 12916 6458
N 2359.65 46.1925 146.384 12917 6459
N 2359.09 45.8619 147.3 12918 6459
N 2804.28 102.53 31.9376 12919 6460
N 2803.26 102.19 32.2886 12920 6460
N 2418.94 7.95769 103.289 12921 6461
N 2419.22 7.23799 104.101 12922 6461
N 2520.97 138.094 69.6503 12923 6462
N 2520.91 138.597 68.66540000000001 12924 6462
N 1879.75 125.346 48.4711 12925 6463
N 1879.94 124.239 48.4205 12926 6463
N 2207.52 61.4122 102.096 12927 6464
N 2207.75 60.5206 101.463 12928 6464
N 2638.66 121.666 80.44670000000001 12929 6465
N 2637.9 120.839 80.49079999999999 12930 6465
N 2206.1 121.455 38.7344 12931 6466
N 2206.24 121.9 39.7601 12932 6466
N 2184.04 111.298 93.0926 12933 6467
N 2184.67 110.512 93.58669999999999 12934 6467
N 2336.3 75.0159 139.496 12935 6468
N 2336.58 75.81399999999999 140.225 12936 6468
N 2451.4 2.08621 26.6897 12937 6469
N 2451.26 1.09577 27.1913 12938 6469
N 2271.78 141.296 27.7994 12939 6470
N 2270.67 141.282 27.726 12940 6470
N 2292.34 24.106 12.335 12941 6471
N 2293.1 23.8529 13.1095 12942 6471
N 2366.94 78.8334 10.3199 12943 6472
N 2367.01 79.9131 10.5214 12944 6472
N 2513.33 38.4061 59.1523 12945 6473
N 2513.52 39.4813 58.9119 12946 6473
N 2794.32 1.18421 89.3673 12947 6474
N 2793.52 1.63457 88.73820000000001 12948 6474
N 1716.61 45.0086 117.966 12949 6475
N 1717.03 45.4732 118.89 12950 6475
N 2336.52 78.66240000000001 66.43989999999999 12951 6476
N 2337.53 78.4248 66.0307 12952 6476
N 2250.62 38.1145 121.375 12953 6477
N 2250.49 38.8146 120.52 12954 6477
N 2248.69 91.0077 92.10039999999999 12955 6478
N 2248.04 90.839 92.9859 12956 6478
N 2329.87 31.7632 68.38590000000001 12957 6479
N 2330.84 31.5302 68.889 12958 6479
N 2017.09 143.266 21.6573 12959 6480
N 2016.27 143.743 21.0445 12960 6480
N 2753.71 50.9228 18.5318 12961 6481
N 2753.22 51.7435 19.1125 12962 6481
N 1765.24 50.8851 94.1788 12963 6482
N 1765.49 50.4225 95.1493 12964 6482
N 2263.63 133.921 84.8068 12965 6483
N 2264.34 134.127 85.6532 12966 6483
N 2312.04 79.17059999999999 105.158 12967 6484
N 2312.96 79.0258 104.546 12968 6484
N 2410.34 29.8527 89.0951 12969 6485
N 2409.77 29.7911 90.0515 12970 6485
N 1917.79 25.1809 79.2517 12971 6486
N 1918.03 25.7118 80.20780000000001 12972 6486
N 2566.12 62.6554 29.3162 12973 6487
N 2566.1 63.6362 29.8676 12974 6487
N 2645.14 92.6841 143.343 12975 6488
N 2645.76 93.586 143.188 12976 6488
N 2122.23 136.952 4.76368 12977 6489
N 2121.97 135.905 5.04423 12978 6489
N 2294.7 119.404 25.3337 12979 6490
N 2295.19 120.293 24.8773 12980 6490
N 2834.46 78.3669 149.056 12981 6491
N 2835.09 78.7877 148.239 12982 6491
N 2719.03 44.6162 115.995 12983 6492
N 2718.24 44.6637 116.791 12984 6492
N 2261.48 5.95153 60.9264 12985 6493
N 2262.52 6.1217 60.5703 12986 6493
N 1973.01 12.1502 30.5685 12987 6494
N 1972.17 12.4294 31.2425 12988 6494
N 2594.84 115.062 64.7854 12989 6495
N 2595.89 115.46 64.74550000000001 12990 6495
N 2492.75 139.724 15.7853 12991 6496
N 2493.79 139.324 15.7325 12992 6496
N 2464.84 82.69280000000001 65.68340000000001 12993 6497
N 2463.86 82.56619999999999 65.1786 12994 6497
N 2938.49 121.6 81.23309999999999 12995 6498
N 2939.57 121.536 80.943 12996 6498
N 1960.76 79.3725 48.8443 12997 6499
N 1960.14 79.48009999999999 49.7701 12998 6499
N 2530.36 105.264 116.53 12999 6500
N 2530.89 106.18 116.899 13000 6500
N 2813.36 97.51439999999999 122.301 13001 6501
N 2813.1 97.0215 123.271 13002 6501
N 2670.63 71.00530000000001 147.751 13003 6502
N 2669.91 71.8396 147.98 13004 6502
N 2650.94 43.8244 76.0145 13005 6503
N 2651.17 43.0503 76.7799 13006 6503
N 2076.86 1.33106 43.4604 13007 6504
N 2075.75 1.39416 43.5517 13008 6504
N 2493.07 129.581 93.9508 13009 6505
N 2493.52 130.513 94.37179999999999 13010 6505
N 2301.3 6.95427 92.2047 13011 6506
N 2301.58 8.03735 92.1641 13012 6506
N 2029.57 86.10599999999999 9.773099999999999 13013 6507
N 2029.52 86.73950000000001 10.6926 13014 6507
N 2700.11 91.6297 39.9154 13015 6508
N 2700.27 92.4311 40.6793 13016 6508
N 2094.01 78.09310000000001 138.108 13017 6509
N 2094.53 77.73260000000001 139.034 13018 6509
N 2497.87 119.577 60.9857 13019 6510
N 2497.45 120.019 61.9266 13020 6510
N 2314.01 132.248 101.104 13021 6511
N 2313.12 132.102 100.442 13022 6511
N 2402.16 66.5232 146.05 13023 6512
N 2402.59 67.2991 145.364 13024 6512
N 2213.66 74.56619999999999 26.6429 13025 6513
N 2214.05 73.52849999999999 26.7999 13026 6513
N 2281.12 79.4654 130.212 13027 6514
N 2280.76 79.4353 129.152 13028 6514
N 2315.04 135.956 90.1721 13029 6515
N 2314.16 135.963 89.482 13030 6515
N 2216.35 78.19759999999999 140.124 13031 6516
N 2217.26 77.7788 140.604 13032 6516
N 2475.29 102.307 32.5875 13033 6517
N 2474.93 101.433 32.0042 13034 6517
N 2485.5 54.8941 35.4231 13035 6518
N 2486.04 55.559 34.7096 13036 6518
N 2740.03 142.883 15.6219 13037 6519
N 2740.77 143.202 14.8632 13038 6519
N 2310.67 49.3416 123.223 13039 6520
N 2309.68 49.1358 123.714 13040 6520
N 2026.52 46.7233 105.344 13041 6521
N 2026.92 45.9511 104.673 13042 6521
N 2111.54 69.2109 133.183 13043 6522
N 2110.68 68.5865 133.541 13044 6522
N 2101.8 70.58 99.8631 13045 6523
N 2101.66 71.6861 99.7443 13046 6523
N 1965.07 6.83261 80.2593 13047 6524
N 1966.12 6.59191 80.50279999999999 13048 6524
N 2237.63 125.594 125.264 13049 6525
N 2236.62 125.723 124.774 13050 6525
N 2043.5 35.3094 149.052 13051 6526
N 2044.15 35.9756 148.443 13052 6526
N 2817 74.82729999999999 98.0275 13053 6527
N 2816.49 75.0745 97.0573 13054 6527
N 2257.86 131.284 44.6509 13055 6528
N 2258.44 132.244 44.6133 13056 6528
N 1986.52 43.4165 71.7619 13057 6529
N 1986.73 44.5152 71.61620000000001 13058 6529
N 1955.08 100.078 82.8948 13059 6530
N 1955.19 99.6836 81.8466 13060 6530
N 2324.36 141.451 142.456 13061 6531
N 2325.1 142.278 142.278 13062 6531
N 2379.22 16.3855 82.8146 13063 6532
N 2379.34 17.3316 83.4034 13064 6532
N 2870.89 110.571 25.1229 13065 6533
N 2871.08 109.87 25.9714 13066 6533
N 2374.16 70.82559999999999 104.326 13067 6534
N 2373.17 70.6292 104.818 13068 6534
N 2571.76 0.841717 5.23578 13069 6535
N 2572.52 0.14201 5.65528 13070 6535
N 2755.25 7.41446 143.179 13071 6536
N 2754.14 7.35838 143.107 13072 6536
N 2560.3 51.985 68.8227 13073 6537
N 2560.17 50.9252 68.4552 13074 6537
N 2438.75 15.9002 30.3571 13075 6538
N 2438.78 15.7896 29.2446 13076 6538
N 2024.28 61.345 72.9939 13077 6539
N 2023.17 61.2996 72.8361 13078 6539
N 2726.94 76.0956 9.15146 13079 6540
N 2727.73 75.6688 9.825530000000001 13080 6540
N 1832.92 68.2684 11.2811 13081 6541
N 1833.3 67.226 11.219 13082 6541
N 2532.45 39.8273 126.111 13083 6542
N 2531.6 40.4596 125.732 13084 6542
N 1658.66 77.3329 31.5663 13085 6543
N 1657.93 78.0265 31.0569 13086 6543
N 2151.62 138.419 18.0708 13087 6544
N 2152.3 137.896 17.3467 13088 6544
N 2549.42 120.938 28.4084 13089 6545
N 2549.85 120.233 27.6645 13090 6545
N 2495.28 93.70180000000001 6.8873 13091 6546
N 2495.23 92.64060000000001 7.19222 13092 6546
N 2446.18 82.2593 120.139 13093 6547
N 2445.48 83.0789 120.375 13094 6547
N 2161.71 50.7921 39.5243 13095 6548
N 2160.66 50.7326 39.8985 13096 6548
N 2223.55 95.8541 65.02249999999999 13097 6549
N 2224.3 96.1459 64.2388 13098 6549
N 2252.88 107.497 64.404 13099 6550
N 2253.97 107.635 64.1696 13100 6550
N 2071.75 4.69633 21.2975 13101 6551
N 2072.06 3.77929 20.7257 13102 6551
N 2406.56 13.5965 42.194 13103 6552
N 2407.26 12.8214 41.8189 13104 6552
N 2761.73 128.129 70.9181 13105 6553
N 2760.69 127.924 70.57170000000001 13106 6553
N 2796.32 114.709 47.7028 13107 6554
N 2795.98 113.699 48.0431 13108 6554
N 2403.52 14.5156 111.84 13109 6555
N 2403.87 15.4615 112.317 13110 6555
N 2125.06 36.1248 120.647 13111 6556
N 2125.32 37.2069 120.523 13112 6556
N 2372.33 38.5328 65.6662 13113 6557
N 2371.83 37.6071 65.28919999999999 13114 6557
N 2623.39 111.47 31.6106 13115 6558
N 2622.64 112.184 32.0396 13116 6558
N 1986.55 136.848 54.3812 13117 6559
N 1987.16 137.622 54.9165 13118 6559
N 2095.99 125.881 149.984 13119 6560
N 2095.23 126.67 149.865 13120 6560
N 2009.6 38.6649 101.431 13121 6561
N 2009.91 39.4675 102.162 13122 6561
N 2118.91 18.8276 60.5758 13123 6562
N 2119.7 18.9438 59.7977 13124 6562
N 2542.5 50.9915 109.782 13125 6563
N 2543.56 50.8475 109.447 13126 6563
N 3142.56 94.61360000000001 45.0183 13127 6564
N 3143.64 94.4307 45.2561 13128 6564
N 2493.94 87.7997 51.7765 13129 6565
N 2493.47 86.9431 52.306 13130 6565
N 2382.53 86.28489999999999 1.04295 13131 6566
N 2381.54 85.75660000000001 1.06102 13132 6566
N 2329.19 82.142 1.88315 13133 6567
N 2330.05 82.8503 1.97255 13134 6567
N 2471.58 26.1824 49.2295 13135 6568
N 2471.05 25.2299 49.4974 13136 6568
N 2779.59 97.4511 2.34907 13137 6569
N 2780.14 98.3867 2.0584 13138 6569
N 2513.8 146.408 68.8605 13139 6570
N 2512.94 146.125 68.2111 13140 6570
N 2578.8 55.5703 95.3839 13141 6571
N 2578.86 56.595 95.8129 13142 6571
N 2269.73 36.6152 62.26 13143 6572
N 2269.67 36.723 61.1466 13144 6572
N 2718.56 122.063 49.7949 13145 6573
N 2717.66 122.314 49.1772 13146 6573
N 2294.15 142.07 59.6161 13147 6574
N 2294.96 142.123 60.3878 13148 6574
N 2394.3 138.614 86.04510000000001 13149 6575
N 2394.29 139.497 86.7414 13150 6575
N 2200.64 74.2081 103.266 13151 6576
N 2200.37 74.34520000000001 102.173 13152 6576
N 2863.49 21.1324 91.90819999999999 13153 6577
N 2864.18 22.0038 91.8122 13154 6577
N 2505.59 123.481 78.1332 13155 6578
N 2504.7 124.023 77.70950000000001 13156 6578
N 2358.3 17.7589 138.34 13157 6579
N 2357.27 18.2021 138.25 13158 6579
N 2559.58 91.6356 19.8378 13159 6580
N 2558.6 91.2692 19.4447 13160 6580
N 2686.78 13.5791 80.3429 13161 6581
N 2686.08 13.6941 81.20440000000001 13162 6581
N 2351.82 38.013 128.339 13163 6582
N 2351.51 37.0817 127.804 13164 6582
N 2019.36 114.678 23.1871 13165 6583
N 2019.7 113.835 22.5473 13166 6583
N 2192.22 59.896 1.65325 13167 6584
N 2193.04 59.2462 2.06272 13168 6584
N 2531.76 48.4668 52.3855 13169 6585
N 2532.53 47.9536 51.7405 13170 6585
N 2753.26 90.93300000000001 10.4671 13171 6586
N 2753.5 89.9521 10.9748 13172 6586
N 2407.91 97.10429999999999 106.833 13173 6587
N 2406.96 96.57299999999999 106.569 13174 6587
N 2627.58 22.2497 134.974 13175 6588
N 2627.64 22.8863 135.895 13176 6588
N 2481.12 65.6024 117.15 13177 6589
N 2481 65.3884 118.248 13178 6589
N 2259.98 117.602 124.054 13179 6590
N 2259.73 116.602 124.491 13180 6590
N 2056.43 59.5901 48.4906 13181 6591
N 2056.97 60.0626 47.6304 13182 6591
N 2506.28 43.4915 106.323 13183 6592
N 2507.01 42.7689 106.748 13184 6592
N 2112.61 113.669 44.0984 13185 6593
N 2112.05 114.632 44.1655 13186 6593
N 2444.32 65.3935 62.7009 13187 6594
N 2444.35 65.86409999999999 61.6802 13188 6594
N 1820.57 60.6872 6.62727 13189 6595
N 1819.53 60.3038 6.48305 13190 6595
N 2377.68 70.7394 106.729 13191 6596
N 2378.38 71.6101 106.648 13192 6596
N 2599.74 34.7763 34.9054 13193 6597
N 2599.34 35.0198 33.882 13194 6597
N 2781.56 139.963 23.3428 13195 6598
N 2781.64 140.667 22.4932 13196 6598
N 2554.76 84.00839999999999 122.432 13197 6599
N 2554.23 84.1506 123.407 13198 6599
N 2386.16 93.16849999999999 148.22 13199 6600
N 2385.81 92.19370000000001 147.786 13200 6600
N 2606.21 48.1859 45.5484 13201 6601
N 2607.21 47.7738 45.8323 13202 6601
N 2701.41 87.4609 14.4942 13203 6602
N 2700.55 86.745 14.5471 13204 6602
N 2767.51 137.478 103.311 13205 6603
N 2767.68 138.478 102.845 13206 6603
N 2486.69 129.315 97.0647 13207 6604
N 2487.64 128.749 97.2371 13208 6604
N 2688.65 82.56959999999999 54.3672 13209 6605
N 2688.96 82.7735 53.3061 13210 6605
N 2283.94 29.9118 74.9515 13211 6606
N 2284.96 29.4981 74.7744 13212 6606
N 2563.09 111.289 112.59 13213 6607
N 2563.38 111.746 111.605 13214 6607
N 2268.3 19.9637 117.623 13215 6608
N 2267.5 20.3226 118.316 13216 6608
N 2296.55 22.4068 56.37 13217 6609
N 2296.2 21.6692 55.6022 13218 6609
N 2621.11 65.96420000000001 26.3376 13219 6610
N 2620.82 64.9559 26.7323 13220 6610
N 2648 24.72 53.1794 13221 6611
N 2648.21 25.4163 52.3241 13222 6611
N 2765.96 139.744 69.8021 13223 6612
N 2765.32 139.743 70.7244 13224 6612
N 2380.53 50.1307 118.548 13225 6613
N 2380.75 49.0321 118.531 13226 6613
N 2041.96 22.8788 128.212 13227 6614
N 2042.35 22.4278 127.259 13228 6614
N 2454.06 50.4328 92.1251 13229 6615
N 2454.16 51.5118 91.8138 13230 6615
N 2469.4 111.381 87.9173 13231 6616
N 2469.11 110.405 88.3793 13232 6616
N 2474.99 73.02630000000001 51.9735 13233 6617
N 2475.26 73.378 50.9302 13234 6617
N 2060.59 81.6519 76.95699999999999 13235 6618
N 2059.61 81.4896 77.4883 13236 6618
N 2170.18 40.6509 103.82 13237 6619
N 2169.71 41.554 104.31 13238 6619
N 2508.35 132.57 21.1501 13239 6620
N 2507.85 133.182 20.3601 13240 6620
N 2494.26 96.7563 106.466 13241 6621
N 2494.62 96.9177 107.52 13242 6621
N 2836.61 97.10299999999999 147.146 13243 6622
N 2836.31 97.89319999999999 147.895 13244 6622
N 2358.29 30.5534 33.638 13245 6623
N 2357.54 30.6478 32.8161 13246 6623
N 2637.32 34.5059 123.555 13247 6624
N 2638.08 34.1769 122.812 13248 6624
N 2062.8 138.323 64.37009999999999 13249 6625
N 2062.67 138.577 63.2791 13250 6625
N 2470.97 92.5604 128.066 13251 6626
N 2472.05 92.76090000000001 128.254 13252 6626
N 2352.04 44.0335 127.092 13253 6627
N 2352.21 43.3132 126.265 13254 6627
N 1929.48 66.12130000000001 4.60378 13255 6628
N 1930.5 65.80719999999999 4.8894 13256 6628
N 2675.27 80.3956 126.354 13257 6629
N 2675.06 79.55549999999999 127.053 13258 6629
N 2669.55 86.7513 96.1979 13259 6630
N 2669.46 87.3295 95.2449 13260 6630
N 2644.05 83.03740000000001 92.5566 13261 6631
N 2643.6 83.7727 93.2685 13262 6631
N 2061.64 47.4425 130.337 13263 6632
N 2062.43 48.0687 129.838 13264 6632
N 2393.67 0.0132987 135.579 13265 6633
N 2392.85 0.352121 136.252 13266 6633
N 2200.69 93.35429999999999 68.1799 13267 6634
N 2201.43 92.5269 68.3485 13268 6634
N 1863.22 130.611 97.3267 13269 6635
N 1863.52 130.057 96.4177 13270 6635
N 2385.44 127.41 22.2533 13271 6636
N 2384.74 126.538 22.2164 13272 6636
N 2708.1 149.876 80.4808 13273 6637
N 2708.41 0.139734 79.42829999999999 13274 6637
N 2686.78 65.9104 86.479 13275 6638
N 2686.41 66.02849999999999 85.4144 13276 6638
N 2107.65 8.12993 65.4357 13277 6639
N 2108.6 8.21374 64.8656 13278 6639
N 2179.91 56.1555 33.5989 13279 6640
N 2179.69 57.2039 33.9287 13280 6640
N 2259.9 21.4484 27.5107 13281 6641
N 2261.01 21.2774 27.4591 13282 6641
N 2275.79 28.9234 139.046 13283 6642
N 2274.73 28.7087 139.358 13284 6642
N 2303.44 54.6291 125.821 13285 6643
N 2303.24 54.2769 126.868 13286 6643
N 2393.17 133.506 105.656 13287 6644
N 2394.19 133.567 106.09 13288 6644
N 2555 139.78 104.507 13289 6645
N 2554.03 140.334 104.577 13290 6645
N 2776.28 30.3284 63.4546 13291 6646
N 2777.31 30.5819 63.7722 13292 6646
N 3122.58 10.059 28.5791 13293 6647
N 3122.8 11.1618 28.6653 13294 6647
N 2482.23 94.907 82.6613 13295 6648
N 2482.21 95.59650000000001 83.547 13296 6648
N 2094.02 144.417 86.0603 13297 6649
N 2094.48 145.394 85.7794 13298 6649
N 2197.31 132.461 80.74420000000001 13299 6650
N 2196.53 132.62 79.9618 13300 6650
N 2325.36 118.17 23.0554 13301 6651
N 2325.7 117.783 22.0607 13302 6651
N 2534.67 140.455 141.68 13303 6652
N 2534.99 140.674 142.727 13304 6652
N 2516.79 52.6453 42.1589 13305 6653
N 2516.52 53.3945 42.9444 13306 6653
N 2535.55 149.654 17.9174 13307 6654
N 2535.15 148.95 18.6974 13308 6654
N 2392.39 51.3963 52.3239 13309 6655
N 2392.62 50.5877 53.0548 13310 6655
N 2523.07 110.958 53.9563 13311 6656
N 2522.67 111.965 53.6864 13312 6656
N 2358.98 48.3948 136.098 13313 6657
N 2358.68 49.458 135.899 13314 6657
N 2391.02 73.6918 99.0303 13315 6658
N 2391.51 74.1588 99.92019999999999 13316 6658
N 2667.41 34.708 83.66459999999999 13317 6659
N 2667.27 33.6276 83.3584 13318 6659
N 2748.93 81.792 113.824 13319 6660
N 2748.42 82.32259999999999 112.995 13320 6660
N 2302.79 140.581 18.7252 13321 6661
N 2303.66 139.87 18.7186 13322 6661
N 2775.49 26.2433 149.58 13323 6662
N 2774.72 26.2527 0.392797 13324 6662
N 2762.92 37.1041 59.0467 13325 6663
N 2761.98 36.8837 59.6194 13326 6663
N 2462.48 115.944 83.59099999999999 13327 6664
N 2463.34 115.27 83.3383 13328 6664
N 2066.38 12.2835 55.2354 13329 6665
N 2067.09 13.0426 55.6807 13330 6665
N 2535.09 48.3682 57.3574 13331 6666
N 2534.58 47.5138 56.8623 13332 6666
N 2414.33 75.34099999999999 89.5535 13333 6667
N 2413.84 76.34139999999999 89.5438 13334 6667
N 2572.25 24.9364 27.9096 13335 6668
N 2571.85 23.9629 27.5278 13336 6668
N 2364.53 88.2991 42.1217 13337 6669
N 2365.42 87.98609999999999 42.7584 13338 6669
N 2054.06 113.219 78.18049999999999 13339 6670
N 2054.05 113.095 77.066 13340 6670
N 2577.38 13.4716 108.093 13341 6671
N 2576.78 13.9829 108.87 13342 6671
N 2365.78 40.3818 83.9537 13343 6672
N 2365.64 39.4886 83.29649999999999 13344 6672
N 2385.49 2.66849 29.5879 13345 6673
N 2386.16 3.2133 30.2941 13346 6673
N 2371.47 37.593 145.6 13347 6674
N 2371.37 38.664 145.26 13348 6674
N 2314.35 69.1382 117.591 13349 6675
N 2314.01 68.1139 117.318 13350 6675
N 2360.44 79.02509999999999 130.331 13351 6676
N 2359.51 79.3832 129.831 13352 6676
N 2422.62 2.23765 14.6721 13353 6677
N 2422.67 3.34592 14.8264 13354 6677
N 2620.67 70.2959 142.751 13355 6678
N 2620.5 69.5012 141.983 13356 6678
N 2172.69 8.515919999999999 14.2954 13357 6679
N 2173.27 9.405430000000001 14.6559 13358 6679
N 2480.88 105.877 94.0883 13359 6680
N 2481.51 106.801 94.08929999999999 13360 6680
N 2777.94 59.7459 58.3757 13361 6681
N 2777.2 59.0283 57.9181 13362 6681
N 2976.72 61.2921 107.56 13363 6682
N 2975.83 60.7506 107.979 13364 6682
N 2220.13 47.6269 97.794 13365 6683
N 2220.29 46.6122 97.35429999999999 13366 6683
N 2247.11 23.4765 149.242 13367 6684
N 2247.85 22.8871 149.845 13368 6684
N 2196.97 112.367 91.0311 13369 6685
N 2197.16 113.153 90.2726 13370 6685
N 2767.84 140.309 99.5637 13371 6686
N 2767.25 139.574 98.96550000000001 13372 6686
N 2516.27 7.08691 113.776 13373 6687
N 2515.75 6.92703 114.759 13374 6687
N 2448.82 49.4938 90.25279999999999 13375 6688
N 2449.58 50.3174 90.27760000000001 13376 6688
N 1443.96 12.7429 77.7204 13377 6689
N 1444.59 13.5056 77.23220000000001 13378 6689
N 2688.15 2.34384 32.6899 13379 6690
N 2689.14 2.62065 32.2522 13380 6690
N 2494.55 128.551 102.386 13381 6691
N 2494.24 127.753 101.664 13382 6691
N 3026.11 57.192 53.2867 13383 6692
N 3026.63 57.7842 54.0889 13384 6692
N 2170.67 57.7858 96.5093 13385 6693
N 2169.64 57.3564 96.4657 13386 6693
N 2195.45 22.2846 97.0916 13387 6694
N 2196.11 22.8902 97.7443 13388 6694
N 2391.17 124.747 40.356 13389 6695
N 2391.74 125.535 39.7956 13390 6695
N 2536.04 12.5152 119.498 13391 6696
N 2535.35 12.907 120.281 13392 6696
N 2252.54 130.225 65.2653 13393 6697
N 2252.85 131.155 64.72029999999999 13394 6697
N 2694.12 137.7 36.8083 13395 6698
N 2693.1 137.957 37.178 13396 6698
N 2616.48 97.5655 1.67676 13397 6699
N 2615.54 97.0766 1.34984 13398 6699
N 2854.86 43.7761 4.74288 13399 6700
N 2854.45 43.1025 3.94327 13400 6700
N 2459.84 92.5934 119.562 13401 6701
N 2459.55 92.28879999999999 118.519 13402 6701
N 2713.47 143.215 100.565 13403 6702
N 2714.45 143.015 100.046 13404 6702
N 3087.87 62.2378 54.2241 13405 6703
N 3087.01 61.9414 54.8813 13406 6703
N 2673.38 73.11409999999999 107.503 13407 6704
N 2673.96 73.9447 107.98 13408 6704
N 2942.97 47.9152 19.9948 13409 6705
N 2942.19 48.1957 19.2342 13410 6705
N 2464 27.892 66.0817 13411 6706
N 2463.2 27.6808 65.3262 13412 6706
N 2362.21 57.3758 75.7796 13413 6707
N 2361.73 56.7662 74.9644 13414 6707
N 2618.01 11.9048 92.8552 13415 6708
N 2617.92 13.0099 92.71250000000001 13416 6708
N 2342.44 29.6792 4.99964 13417 6709
N 2343.42 29.3586 4.57913 13418 6709
N 2583.85 5.21927 11.3256 13419 6710
N 2583.27 6.05761 11.7984 13420 6710
N 1972.13 68.0706 33.2662 13421 6711
N 1973.03 68.4619 32.7341 13422 6711
N 2370.49 24.4807 133.347 13423 6712
N 2370.83 25.0014 132.413 13424 6712
N 3003.71 45.4555 0.699091 13425 6713
N 3003.91 44.9235 1.65876 13426 6713
N 2372.49 61.5147 127.666 13427 6714
N 2372.23 61.0688 128.659 13428 6714
N 2554.41 82.22629999999999 107.492 13429 6715
N 2555.3 82.1146 108.162 13430 6715
N 2581.29 18.8165 60.107 13431 6716
N 2581.62 17.8177 60.4986 13432 6716
N 2828.78 41.2802 82.03449999999999 13433 6717
N 2829.31 41.0742 82.9686 13434 6717
N 2634.14 17.1095 129.034 13435 6718
N 2633.7 17.6446 129.912 13436 6718
N 2735.06 60.8906 26.8826 13437 6719
N 2735.3 60.1893 27.7181 13438 6719
N 2037.31 49.1069 95.3626 13439 6720
N 2037.9 48.3245 94.82470000000001 13440 6720
N 2367.56 37.9174 149.793 13441 6721
N 2368.1 36.9803 0.0828359 13442 6721
N 2335.8 59.7421 2.35445 13443 6722
N 2336.76 60.0518 1.88499 13444 6722
N 2728.91 75.79510000000001 96.535 13445 6723
N 2728.34 75.1981 97.28189999999999 13446 6723
N 2404.46 131.496 96.791 13447 6724
N 2403.81 130.652 97.1221 13448 6724
N 2316.31 28.8259 81.3083 13449 6725
N 2316.71 29.5545 80.5654 13450 6725
N 2073.67 11.5639 138.929 13451 6726
N 2074.14 11.522 137.905 13452 6726
N 2838.94 60.4123 85.02160000000001 13453 6727
N 2838.79 61.4128 85.4988 13454 6727
N 2679.49 25.3088 138.424 13455 6728
N 2678.4 25.2089 138.677 13456 6728
N 2931.99 26.503 40.6015 13457 6729
N 2932.3 25.4933 40.9763 13458 6729
N 2055.53 135.603 12.8677 13459 6730
N 2056.59 135.728 12.5715 13460 6730
N 2139.84 8.215999999999999 18.8051 13461 6731
N 2140.71 8.921860000000001 18.872 13462 6731
N 1862.26 99.8186 84.3212 13463 6732
N 1862.43 98.7196 84.4357 13464 6732
N 2308.49 57.539 15.5709 13465 6733
N 2308.85 58.4068 14.9737 13466 6733
N 2543.87 126.671 99.3318 13467 6734
N 2543.38 126.734 98.33150000000001 13468 6734
N 2607.55 130.744 53.4084 13469 6735
N 2608.29 131.301 52.7653 13470 6735
N 2522.13 95.1343 16.6005 13471 6736
N 2522.07 96.24339999999999 16.4741 13472 6736
N 2610.1 115.028 95.3674 13473 6737
N 2609.58 114.396 96.1284 13474 6737
N 2376.1 32.8918 147.651 13475 6738
N 2376.35 33.8945 148.085 13476 6738
N 2460.46 87.3325 60.8724 13477 6739
N 2461.54 87.6378 60.8049 13478 6739
N 1729.75 103.641 52.6578 13479 6740
N 1730.22 103.485 53.6622 13480 6740
N 2228.6 97.5561 138.955 13481 6741
N 2228.83 98.6298 138.765 13482 6741
N 2985.36 127.152 28.9266 13483 6742
N 2985.6 128.245 28.8816 13484 6742
N 2701.81 141.76 81.4515 13485 6743
N 2701.18 141.033 80.8763 13486 6743
N 2485.24 64.3218 111.675 13487 6744
N 2485.51 63.4246 112.28 13488 6744
N 1949.36 8.071949999999999 86.5762 13489 6745
N 1948.33 8.42385 86.3436 13490 6745
N 2720.21 72.04730000000001 96.596 13491 6746
N 2719.72 72.07850000000001 97.624 13492 6746
N 2515.8 111.367 114.853 13493 6747
N 2516.68 111.56 114.188 13494 6747
N 2585.31 69.43859999999999 95.2633 13495 6748
N 2584.7 68.8334 94.5676 13496 6748
N 2590.87 142.598 17.3149 13497 6749
N 2590.01 142.521 18.0157 13498 6749
N 2586.9 131.175 99.86409999999999 13499 6750
N 2586.85 130.378 100.652 13500 6750
N 2650.68 53.3611 25.3863 13501 6751
N 2650.74 54.4311 25.0624 13502 6751
N 2501.89 95.0664 127.911 13503 6752
N 2501.01 95.1465 128.579 13504 6752
N 2219.58 59.4366 97.48650000000001 13505 6753
N 2220.44 58.7351 97.2949 13506 6753
N 2845.53 66.29170000000001 144.362 13507 6754
N 2845.71 65.3873 144.999 13508 6754
N 2714.33 18.8826 134.114 13509 6755
N 2713.39 18.2804 134.05 13510 6755
N 2047.38 100.265 55.6421 13511 6756
N 2047.18 100.073 54.5557 13512 6756
N 2438.33 90.29940000000001 25.5755 13513 6757
N 2439.3 90.76609999999999 25.8988 13514 6757
N 2735.96 54.5518 61.5499 13515 6758
N 2736.7 54.0245 62.1993 13516 6758
N 2183.93 45.2718 133.763 13517 6759
N 2183 45.7502 134.124 13518 6759
N 2480.73 27.0291 64.02719999999999 13519 6760
N 2480.45 27.4902 65.0115 13520 6760
N 2663.33 122.087 117.86 13521 6761
N 2662.86 121.715 118.806 13522 6761
N 2592.02 134.76 44.436 13523 6762
N 2592.23 133.903 45.1027 13524 6762
N 2381.57 129.665 74.72320000000001 13525 6763
N 2382.57 129.189 74.5111 13526 6763
N 2596.75 75.5551 96.92570000000001 13527 6764
N 2596.51 75.6772 98.0085 13528 6764
N 2770.47 58.6243 26.5161 13529 6765
N 2771.53 58.5095 26.1745 13530 6765
N 2561.69 5.692 84.70910000000001 13531 6766
N 2561.7 6.54492 85.43600000000001 13532 6766
N 2287.38 50.7051 147.628 13533 6767
N 2286.33 50.7719 147.989 13534 6767
N 2741.38 25.0918 48.8174 13535 6768
N 2740.29 25.1783 49.0478 13536 6768
N 2677.75 61.3785 96.2197 13537 6769
N 2677.11 62.2597 95.9601 13538 6769
N 2026.83 49.282 80.1802 13539 6770
N 2025.95 49.0188 79.5449 13540 6770
N 2339.23 112.114 32.4641 13541 6771
N 2338.17 111.814 32.2425 13542 6771
N 2418.36 106.758 116.524 13543 6772
N 2418.66 105.746 116.171 13544 6772
N 2488.13 42.5342 122.125 13545 6773
N 2488.43 42.9367 123.129 13546 6773
N 2575.68 62.3294 103.135 13547 6774
N 2576.72 61.9329 103.038 13548 6774
N 2433.55 69.21599999999999 114.509 13549 6775
N 2434.45 69.81399999999999 114.23 13550 6775
N 2144.42 82.02630000000001 35.836 13551 6776
N 2144.95 81.9499 34.8486 13552 6776
N 2898.62 96.2321 144 13553 6777
N 2898.96 96.3159 142.928 13554 6777
N 2588.96 148.941 144.698 13555 6778
N 2587.91 149.097 144.335 13556 6778
N 2246.76 74.19759999999999 40.5439 13557 6779
N 2246.25 73.2124 40.5283 13558 6779
N 2411.13 30.7938 63.8833 13559 6780
N 2410.33 30.0672 63.6313 13560 6780
N 2179.01 34.3176 97.8668 13561 6781
N 2178.86 35.3798 97.547 13562 6781
N 2719.41 107.353 11.7642 13563 6782
N 2719.51 107.833 10.7561 13564 6782
N 2710.25 40.6854 83.67310000000001 13565 6783
N 2709.58 40.1887 84.40989999999999 13566 6783
N 2515.72 18.3203 0.585768 13567 6784
N 2516.42 19.1889 0.6535029999999999 13568 6784
N 2170.83 140.481 132.624 13569 6785
N 2170.92 140.321 131.534 13570 6785
N 2286.01 31.6604 95.0151 13571 6786
N 2286.49 30.8879 95.67270000000001 13572 6786
N 2320.73 68.0904 88.4038 13573 6787
N 2320.53 69.1134 88.7833 13574 6787
N 2546.38 88.2222 145.178 13575 6788
N 2545.64 87.51349999999999 145.624 13576 6788
N 1809.99 121.625 102.261 13577 6789
N 1810.35 121.46 101.215 13578 6789
N 2463.22 17.0901 130.195 13579 6790
N 2463.52 16.069 129.831 13580 6790
N 2829.47 31.2797 89.572 13581 6791
N 2829.39 30.2975 89.0411 13582 6791
N 2449.27 104.354 136.523 13583 6792
N 2449.24 105.447 136.284 13584 6792
N 2441.8 11.9351 32.8353 13585 6793
N 2440.93 11.8448 33.5336 13586 6793
N 2585.96 99.2799 72.1781 13587 6794
N 2585.34 100.193 71.9988 13588 6794
N 2587.2 35.3806 11.2421 13589 6795
N 2586.45 34.8965 10.555 13590 6795
N 2471.59 51.3741 148.497 13591 6796
N 2471.23 52.3069 148.002 13592 6796
N 2520.8 62.5934 89.7791 13593 6797
N 2521.25 62.0754 90.6665 13594 6797
N 2517.56 50.6951 64.4652 13595 6798
N 2517.09 51.6995 64.3443 13596 6798
N 2360.87 63.9811 3.23312 13597 6799
N 2361.36 62.9859 3.25863 13598 6799
N 2830.71 99.4782 38.5997 13599 6800
N 2829.78 99.0744 38.1104 13600 6800
N 2617.48 116.467 20.4335 13601 6801
N 2618.55 116.294 20.7115 13602 6801
N 2271.27 30.5385 70.3603 13603 6802
N 2270.3 30.5083 70.9344 13604 6802
N 2657.86 39.6349 149.852 13605 6803
N 2658.02 39.4646 148.765 13606 6803
N 2638.72 51.8853 77.7394 13607 6804
N 2638.1 52.0445 76.834 13608 6804
N 2619.47 144.72 143.205 13609 6805
N 2619.16 145.331 144.076 13610 6805
N 2342.11 90.94329999999999 147.511 13611 6806
N 2341.37 91.03440000000001 148.345 13612 6806
N 2532.78 114.84 17.5761 13613 6807
N 2531.86 114.634 16.9666 13614 6807
N 2070.96 126.619 133.986 13615 6808
N 2070.79 126.348 132.907 13616 6808
N 2602.63 99.6538 0.356378 13617 6809
N 2602.62 98.63209999999999 0.79817 13618 6809
N 2187.29 81.6143 66.88679999999999 13619 6810
N 2187.11 82.7093 66.9885 13620 6810
N 2100.39 142.719 59.3391 13621 6811
N 2100.42 141.904 60.0891 13622 6811
N 2594.52 45.7655 26.9602 13623 6812
N 2593.81 45.5984 27.8066 13624 6812
N 2539.38 140.443 136.864 13625 6813
N 2539.42 141.495 137.222 13626 6813
N 2323.78 63.6135 41.2778 13627 6814
N 2323.14 63.6575 40.3628 13628 6814
N 2548.7 8.09798 62.6161 13629 6815
N 2548.51 7.7101 63.6397 13630 6815
N 2902.74 37.4058 9.58728 13631 6816
N 2902.59 37.4489 10.7073 13632 6816
N 2681.68 89.72369999999999 126.143 13633 6817
N 2681.7 90.72669999999999 126.656 13634 6817
N 2463.96 104.087 142.403 13635 6818
N 2464.67 104.032 141.54 13636 6818
N 2157.56 13.7185 1.94527 13637 6819
N 2157.86 12.6461 1.80819 13638 6819
N 2621.64 55.1115 96.39279999999999 13639 6820
N 2621.67 55.8844 97.19370000000001 13640 6820
N 2087.93 131.936 17.6983 13641 6821
N 2087.05 132.555 18.0095 13642 6821
N 2646.88 80.5399 21.9408 13643 6822
N 2647.27 81.37309999999999 22.5959 13644 6822
N 2524.59 133.979 61.7151 13645 6823
N 2525.14 132.987 61.6565 13646 6823
N 2771.7 134.679 141.738 13647 6824
N 2772.01 135.732 141.919 13648 6824
N 2354.81 90.4328 34.5991 13649 6825
N 2354.54 90.38720000000001 33.5096 13650 6825
N 2232.75 96.06270000000001 95.8781 13651 6826
N 2231.76 96.3125 95.4537 13652 6826
N 2489.57 51.1009 91.648 13653 6827
N 2489.56 51.8235 90.79770000000001 13654 6827
N 2530.26 134.048 44.4048 13655 6828
N 2531.24 133.808 43.9222 13656 6828
N 2600.67 61.5981 24.0725 13657 6829
N 2601.19 61.8957 23.1265 13658 6829
N 2417.17 147.919 10.5043 13659 6830
N 2417.91 148.111 9.68505 13660 6830
N 2622.92 77.6497 18.5454 13661 6831
N 2623.31 77.19240000000001 17.6015 13662 6831
N 2241.05 60.4513 25.2463 13663 6832
N 2240.56 61.41 24.9461 13664 6832
N 2486.72 77.0119 91.4663 13665 6833
N 2486.45 76.0605 90.9378 13666 6833
N 2334.44 6.52458 76.71980000000001 13667 6834
N 2333.85 6.19406 75.8152 13668 6834
N 2273.46 130.082 47.8721 13669 6835
N 2274.4 129.48 47.9102 13670 6835
N 1983.72 128.374 82.5123 13671 6836
N 1984.46 128.695 83.2914 13672 6836
N 2607.31 13.5019 146.596 13673 6837
N 2607.9 14.3556 146.169 13674 6837
N 1982.38 17.1375 94.41079999999999 13675 6838
N 1982.24 16.5407 93.4738 13676 6838
N 2778.11 69.51949999999999 123.153 13677 6839
N 2777.99 70.3074 123.932 13678 6839
N 2342.62 75.6682 128.773 13679 6840
N 2342.89 76.5578 128.154 13680 6840
N 2527.14 1.50278 99.9854 13681 6841
N 2526.55 2.20892 100.609 13682 6841
N 2543.95 49.6011 140.045 13683 6842
N 2544.99 49.3613 139.724 13684 6842
N 2719.82 95.0129 24.8493 13685 6843
N 2719.55 96.071 24.7186 13686 6843
N 2315.24 138.591 11.6768 13687 6844
N 2314.92 137.517 11.7188 13688 6844
N 2724.58 54.1744 56.61 13689 6845
N 2724.99 53.8999 55.5906 13690 6845
N 2661.95 129.45 120.263 13691 6846
N 2662.94 129.598 119.749 13692 6846
N 2973.35 146.864 93.4053 13693 6847
N 2973.11 147.854 92.9526 13694 6847
N 2644.63 137.625 13.2147 13695 6848
N 2645.33 138.164 12.5334 13696 6848
N 2820.29 0.778728 47.1252 13697 6849
N 2820.23 0.606118 46.0227 13698 6849
N 2138.56 87.8982 15.4822 13699 6850
N 2138.28 87.25790000000001 16.3565 13700 6850
N 2063.96 43.6744 128.421 13701 6851
N 2064.67 44.1427 127.718 13702 6851
N 2338.4 7.22039 14.2772 13703 6852
N 2338.23 6.19271 13.8729 13704 6852
N 2247 83.2814 70.66330000000001 13705 6853
N 2246.56 83.0046 71.651 13706 6853
N 2274.93 69.571 7.65675 13707 6854
N 2275.36 70.4042 7.03291 13708 6854
N 2881.63 119.549 72.1681 13709 6855
N 2880.85 118.744 72.2221 13710 6855
N 2952.03 38.1856 129.65 13711 6856
N 2951.93 39.3003 129.765 13712 6856
N 2785.01 76.81740000000001 10.9527 13713 6857
N 2785.26 75.8845 10.3933 13714 6857
N 2634.67 8.81851 137.809 13715 6858
N 2634.81 9.49432 136.92 13716 6858
N 2450.59 121.926 4.78771 13717 6859
N 2450.74 121.099 5.53924 13718 6859
N 2676.39 145.84 14.5468 13719 6860
N 2675.4 146.354 14.5868 13720 6860
N 2458.95 107.961 45.7202 13721 6861
N 2458.56 108.614 46.5289 13722 6861
N 2565.49 117.733 57.1952 13723 6862
N 2566.52 117.691 57.6322 13724 6862
N 2224.36 108.586 59.6751 13725 6863
N 2225.08 109.442 59.7429 13726 6863
N 2494.47 55.103 33.0096 13727 6864
N 2494.41 54.5489 33.9744 13728 6864
N 2288.16 84.4598 19.9831 13729 6865
N 2287.96 85.1349 20.8567 13730 6865
N 2541.4 85.0021 114.187 13731 6866
N 2540.61 85.6191 114.676 13732 6866
N 2425.68 57.5307 86.0406 13733 6867
N 2424.73 57.0643 85.66330000000001 13734 6867
N 2396.81 28.4653 18.07 13735 6868
N 2396.44 28.9183 17.1174 13736 6868
N 2640.38 50.4106 93.95999999999999 13737 6869
N 2640.69 50.8377 92.9716 13738 6869
N 2482.12 139.701 129.371 13739 6870
N 2481.46 140.119 128.576 13740 6870
N 2272.85 25.2686 149.221 13741 6871
N 2272.59 24.189 149.117 13742 6871
N 2812.27 16.5779 122.307 13743 6872
N 2813.21 16.8116 122.856 13744 6872
N 3222.02 22.0856 63.0933 13745 6873
N 3222.88 21.4919 63.5045 13746 6873
N 2612.81 74.3296 94.3002 13747 6874
N 2613.55 73.5536 94.6253 13748 6874
N 3044.68 32.8494 98.8623 13749 6875
N 3045.71 33.241 98.9323 13750 6875
N 2236.9 2.94324 87.5689 13751 6876
N 2236.02 3.50049 87.982 13752 6876
N 2254.32 126.797 91.9569 13753 6877
N 2255.39 126.623 91.6961 13754 6877
N 2878.31 34.7042 91.2443 13755 6878
N 2877.75 35.618 90.9404 13756 6878
N 2739.73 98.5093 51.5537 13757 6879
N 2740.48 97.7714 51.9317 13758 6879
N 2365.14 26.6705 110.462 13759 6880
N 2365.58 27.5723 110.953 13760 6880
N 2828.83 128.77 149.554 13761 6881
N 2828.42 129.523 148.835 13762 6881
N 2571.43 83.3939 14.8055 13763 6882
N 2571.86 83.6087 13.804 13764 6882
N 2140.17 128.76 70.49590000000001 13765 6883
N 2139.49 129.083 69.65430000000001 13766 6883
N 2230.05 47.4772 113.287 13767 6884
N 2230.74 46.9604 114 13768 6884
N 2699.9 68.88420000000001 103.367 13769 6885
N 2698.82 68.9584 103.101 13770 6885
N 2084.03 147.376 78.4239 13771 6886
N 2083.32 148.24 78.51519999999999 13772 6886
N 2332.79 40.7614 55.7457 13773 6887
N 2332.71 39.9853 56.5448 13774 6887
N 2455.74 41.476 83.7192 13775 6888
N 2454.82 42.0661 83.4714 13776 6888
N 2638.18 145.914 133.577 13777 6889
N 2638.56 144.866 133.384 13778 6889
N 2244.36 73.9575 86.1262 13779 6890
N 2243.76 73.9969 85.1846 13780 6890
N 2264.21 111.889 18.2073 13781 6891
N 2264.97 112.548 18.703 13782 6891
N 2290.09 27.6693 145.031 13783 6892
N 2290.25 28.5857 144.406 13784 6892
N 2222.04 147.198 8.8651 13785 6893
N 2222.69 147.423 9.759080000000001 13786 6893
N 2655.96 90.6288 133.213 13787 6894
N 2656.93 91.1799 133.176 13788 6894
N 3218.38 104.714 127.328 13789 6895
N 3217.77 103.946 126.814 13790 6895
N 2783.92 35.5511 74.45999999999999 13791 6896
N 2784.09 34.4925 74.7799 13792 6896
N 2577.48 57.2981 4.02678 13793 6897
N 2577.63 58.1372 4.76912 13794 6897
N 2038.73 149.566 55.5516 13795 6898
N 2039.38 149.337 54.6612 13796 6898
N 2679.78 4.94888 86.2153 13797 6899
N 2679.83 5.07493 85.1024 13798 6899
N 2154.22 60.7044 33.9934 13799 6900
N 2155.29 61.0146 34.0961 13800 6900
N 2626.99 22.7874 9.213480000000001 13801 6901
N 2627.51 21.796 9.283110000000001 13802 6901
N 2917.79 16.943 31.0576 13803 6902
N 2917.63 15.9571 31.5627 13804 6902
N 2533.73 44.983 104.8 13805 6903
N 2532.64 44.7695 104.65 13806 6903
N 2379.75 40.6453 43.9824 13807 6904
N 2379.79 40.2377 45.0242 13808 6904
N 2451.99 7.45492 129.622 13809 6905
N 2452.42 6.65891 128.979 13810 6905
N 2798.94 109.692 146.02 13811 6906
N 2799.17 109.139 145.071 13812 6906
N 2719.9 143.021 97.0887 13813 6907
N 2718.86 143.215 97.48309999999999 13814 6907
N 2221.77 49.3958 35.5536 13815 6908
N 2222.17 49.5218 34.5102 13816 6908
N 2657.01 14.0081 138.003 13817 6909
N 2656.41 13.9334 138.941 13818 6909
N 2862.28 50.6684 51.3099 13819 6910
N 2862.74 49.7912 50.8001 13820 6910
N 2354.21 40.7968 91.8663 13821 6911
N 2355.26 41.0252 91.61239999999999 13822 6911
N 2070.51 90.5436 16.3462 13823 6912
N 2071.6 90.40049999999999 16.5113 13824 6912
N 2569.63 69.5348 82.67659999999999 13825 6913
N 2569.81 68.6122 83.2796 13826 6913
N 2098.78 96.4012 13.0456 13827 6914
N 2098.09 95.5151 13.1449 13828 6914
N 2941.8 136.019 94.9654 13829 6915
N 2941.52 134.947 94.79559999999999 13830 6915
N 2192.84 76.1335 31.5779 13831 6916
N 2193.8 75.93089999999999 31.0497 13832 6916
N 2540.39 17.7691 34.3725 13833 6917
N 2539.55 17.0698 34.532 13834 6917
N 2446.43 2.12857 148.063 13835 6918
N 2446.22 1.07477 148.367 13836 6918
N 2490.43 97.9042 75.63209999999999 13837 6919
N 2490.72 97.0021 75.0356 13838 6919
N 2516.02 84.18049999999999 29.7414 13839 6920
N 2517.04 83.85250000000001 29.4456 13840 6920
N 2689.49 81.5099 63.4544 13841 6921
N 2688.51 81.7287 62.9598 13842 6921
N 2972 81.4667 149.982 13843 6922
N 2971.39 81.6006 149.047 13844 6922
N 2568.17 65.3283 98.8544 13845 6923
N 2567.2 64.8001 99.0348 13846 6923
N 2996.79 64.5669 57.5803 13847 6924
N 2997.67 64.23560000000001 58.2056 13848 6924
N 2461.87 131.334 144.032 13849 6925
N 2462.27 130.394 143.557 13850 6925
N 2776.29 1.3114 100.761 13851 6926
N 2776.98 0.468849 100.494 13852 6926
N 2428.58 57.8523 149.359 13853 6927
N 2429.05 57.734 0.370296 13854 6927
N 2659.03 55.0131 56.539 13855 6928
N 2658.21 55.3294 57.2074 13856 6928
N 2158.1 147.281 53.1066 13857 6929
N 2157.97 148.283 52.6305 13858 6929
N 2550.78 126.145 68.75709999999999 13859 6930
N 2550.4 125.737 67.79000000000001 13860 6930
N 2798.85 94.23569999999999 82.1374 13861 6931
N 2798.43 94.52549999999999 81.137 13862 6931
N 2246.53 144.992 47.3751 13863 6932
N 2246.05 145.847 46.8076 13864 6932
N 2968.92 141.195 103.041 13865 6933
N 2968.49 140.874 102.054 13866 6933
N 2692.02 16.7484 52.3792 13867 6934
N 2691.65 17.7662 52.1147 13868 6934
N 2626.57 32.1249 71.288 13869 6935
N 2626.97 33.1266 71.5902 13870 6935
N 2871.91 84.6054 87.9151 13871 6936
N 2871.09 85.2867 87.5887 13872 6936
N 2913.06 79.51000000000001 32.847 13873 6937
N 2912.66 80.1003 33.712 13874 6937
N 2574.26 6.36326 105.994 13875 6938
N 2574.79 5.76737 105.206 13876 6938
N 2645.43 46.7675 145.802 13877 6939
N 2646.49 46.6145 145.477 13878 6939
N 2571.68 10.3079 1.97356 13879 6940
N 2571.81 10.3468 0.864857 13880 6940
N 2481.33 82.1456 59.1477 13881 6941
N 2482.19 81.4558 59.271 13882 6941
N 2632.64 139.534 25.5168 13883 6942
N 2632.34 140.271 24.7282 13884 6942
N 1951.01 39.1636 9.11389 13885 6943
N 1951.57 38.2153 8.93717 13886 6943
N 2813.73 37.8196 31.0902 13887 6944
N 2812.79 38.2882 30.693 13888 6944
N 2505.14 94.57810000000001 2.98724 13889 6945
N 2504.11 94.71510000000001 2.57647 13890 6945
N 2481.94 115.071 9.204739999999999 13891 6946
N 2481.89 115.29 10.2993 13892 6946
N 2612.69 132.3 52.8572 13893 6947
N 2612.39 131.543 53.62 13894 6947
N 2350.75 104.059 96.3412 13895 6948
N 2350.03 104.492 95.6142 13896 6948
N 2518.56 87.85639999999999 117.521 13897 6949
N 2517.9 87.75360000000001 118.422 13898 6949
N 2911.15 149.166 1.15181 13899 6950
N 2911 149.952 1.93672 13900 6950
N 2345.77 114.317 139.343 13901 6951
N 2345.97 115.081 138.552 13902 6951
N 3071.23 26.2293 135.069 13903 6952
N 3072.24 26.3684 135.555 13904 6952
N 2326.1 85.18380000000001 60.1025 13905 6953
N 2325.8 84.694 59.1423 13906 6953
N 2264.34 40.6468 115.291 13907 6954
N 2264.48 39.6716 115.835 13908 6954
N 2755.38 137.459 47.1178 13909 6955
N 2755.72 137.644 48.1666 13910 6955
N 2400.9 81.21939999999999 65.54300000000001 13911 6956
N 2400.4 81.1854 66.5364 13912 6956
N 2610.72 32.1405 84.7732 13913 6957
N 2611.45 31.8532 85.5565 13914 6957
N 2831.16 92.57340000000001 3.74692 13915 6958
N 2830.19 93.04600000000001 3.45078 13916 6958
N 2289.87 65.67319999999999 45.5693 13917 6959
N 2289.78 65.9962 46.6294 13918 6959
N 2961.94 29.7279 102.426 13919 6960
N 2960.86 29.9889 102.354 13920 6960
N 2337.71 1.19222 129.164 13921 6961
N 2338.71 1.20892 128.673 13922 6961
N 2549.53 11.8916 53.5426 13923 6962
N 2550.12 12.714 53.075 13924 6962
N 2433.18 39.1677 148.853 13925 6963
N 2433.7 38.2385 148.501 13926 6963
N 2908.69 122.817 103.565 13927 6964
N 2908.66 123.934 103.613 13928 6964
N 2769.1 15.9862 127.845 13929 6965
N 2768.54 16.0075 128.803 13930 6965
N 2554.27 142.987 75.74250000000001 13931 6966
N 2553.96 143.113 76.8064 13932 6966
N 2928.67 134.422 12.7427 13933 6967
N 2929.21 133.865 13.5532 13934 6967
N 2513.34 51.5987 115.273 13935 6968
N 2512.97 51.0909 114.342 13936 6968
N 2660.52 0.822144 144.307 13937 6969
N 2660.57 1.76178 144.912 13938 6969
N 2467.45 77.1583 100.407 13939 6970
N 2466.66 77.7102 99.8605 13940 6970
N 2162.88 81.1199 13.3096 13941 6971
N 2162.17 81.3169 12.4678 13942 6971
N 2529.25 70.61879999999999 10.0066 13943 6972
N 2529.61 71.6473 9.76788 13944 6972
N 2461.71 28.9603 143.599 13945 6973
N 2461.65 27.8911 143.923 13946 6973
N 2579.19 80.7086 38.6081 13947 6974
N 2579.56 81.43640000000001 39.3745 13948 6974
N 2327.36 38.3328 53.7038 13949 6975
N 2328.41 38.6932 53.5851 13950 6975
N 2323.59 25.1714 22.9057 13951 6976
N 2324.56 25.3374 23.4223 13952 6976
N 2755.78 131.052 76.0595 13953 6977
N 2755.37 131.774 76.8038 13954 6977
N 2659.89 1.5605 94.5617 13955 6978
N 2659.53 1.60609 93.5038 13956 6978
N 2341.64 60.7628 147.014 13957 6979
N 2341.22 60.8626 146.006 13958 6979
N 2382.93 97.8796 77.96380000000001 13959 6980
N 2382.89 97.30200000000001 78.9221 13960 6980
N 2167.61 10.5148 96.21469999999999 13961 6981
N 2166.74 10.7715 96.8737 13962 6981
N 2193.98 140.74 66.2273 13963 6982
N 2193.22 139.942 66.08839999999999 13964 6982
N 2682.61 97.9378 121.954 13965 6983
N 2681.61 97.9462 121.457 13966 6983
N 2776.23 140.914 67.8068 13967 6984
N 2776.04 140.202 68.6422 13968 6984
N 2624.27 120.413 109.643 13969 6985
N 2623.27 120.008 109.89 13970 6985
N 2475.92 88.7197 122.078 13971 6986
N 2475.8 87.62949999999999 121.853 13972 6986
N 2851.91 35.9223 24.8555 13973 6987
N 2852.79 35.361 24.4326 13974 6987
N 2813.19 11.4165 56.6205 13975 6988
N 2812.12 11.2932 56.9414 13976 6988
N 2506.79 26.3007 82.20610000000001 13977 6989
N 2506.54 26.2585 83.2946 13978 6989
N 2251.89 133.856 87.8584 13979 6990
N 2251.93 134.849 87.3215 13980 6990
N 2781.45 139.052 132.591 13981 6991
N 2780.42 138.944 132.186 13982 6991
N 2966.83 125.913 46.8123 13983 6992
N 2965.87 125.451 47.1554 13984 6992
N 2451.68 41.8041 11.7468 13985 6993
N 2451.19 42.5664 11.0843 13986 6993
N 2566.37 18.4706 13.6346 13987 6994
N 2566.75 19.2637 12.9343 13988 6994
N 2171.76 95.78440000000001 25.3877 13989 6995
N 2171.34 96.16240000000001 24.4303 13990 6995
N 2166.83 17.0344 27.2671 13991 6996
N 2166.25 17.9108 27.5173 13992 6996
N 2301.25 149.046 68.6183 13993 6997
N 2300.2 148.976 69.0232 13994 6997
N 2536.65 50.033 38.0371 13995 6998
N 2537.45 50.6211 38.5264 13996 6998
N 2277.79 82.9135 126.684 13997 6999
N 2277.79 81.8146 126.558 13998 6999
N 2646.86 58.516 63.0436 13999 7000
N 2647.31 59.515 62.7719 14000 7000
N 2393.32 98.4949 55.6664 14001 7001
N 2393.3 99.60980000000001 55.7672 14002 7001
N 2291.69 51.5789 19.9817 14003 7002
N 2292.06 50.9658 19.1251 14004 7002
N 2755.85 140.039 126.663 14005 7003
N 2756.1 139.361 125.812 14006 7003
N 2654.11 110.213 29.0378 14007 7004
N 2653.29 109.489 29.2869 14008 7004
N 2599.18 4.51895 82.2118 14009 7005
N 2600.24 4.24258 82.4744 14010 7005
N 2650.53 104.746 100.659 14011 7006
N 2649.7 105.425 101.003 14012 7006
N 2375.96 51.1329 21.4161 14013 7007
N 2375.2 51.5609 20.7144 14014 7007
N 2559.97 34.2538 79.06950000000001 14015 7008
N 2559.87 33.3556 79.7223 14016 7008
N 2342.79 42.8316 36.217 14017 7009
N 2342.26 42.3737 37.0874 14018 7009
N 2292.34 40.6926 61.0378 14019 7010
N 2292.51 41.3117 61.9585 14020 7010
N 2051.31 143.235 57.4594 14021 7011
N 2051.19 144.282 57.0788 14022 7011
N 2247.14 97.0179 121.914 14023 7012
N 2247.86 97.32089999999999 121.119 14024 7012
N 3069.04 148.451 108.097 14025 7013
N 3068.35 149.298 108.371 14026 7013
N 2373.63 78.1591 12.4729 14027 7014
N 2373.89 77.95189999999999 11.4061 14028 7014
N 2471.68 41.0086 44.6039 14029 7015
N 2472.58 40.8159 43.9891 14030 7015
N 2461.94 13.4273 44.5289 14031 7016
N 2462.35 12.5908 43.908 14032 7016
N 2840.55 14.2119 23.7509 14033 7017
N 2840.55 15.0069 24.5535 14034 7017
N 2456.12 148.654 112.704 14035 7018
N 2455.36 149.361 113.11 14036 7018
N 2114.24 112.268 129.254 14037 7019
N 2113.69 112.926 129.97 14038 7019
N 2377.41 143.407 59.7367 14039 7020
N 2377.21 143.745 58.6879 14040 7020
N 2554.6 135.917 34.4392 14041 7021
N 2554.25 135.632 33.4174 14042 7021
N 2888.28 69.2503 12.9243 14043 7022
N 2887.45 69.9068 13.2719 14044 7022
N 2933.08 12.5716 81.8429 14045 7023
N 2932.81 11.9839 80.9327 14046 7023
N 2487.62 17.3859 138.804 14047 7024
N 2487.21 17.7907 137.841 14048 7024
N 2606.67 148.806 124.755 14049 7025
N 2607.01 149.864 124.697 14050 7025
N 2459.76 94.9281 64.176 14051 7026
N 2460.86 94.7671 64.0094 14052 7026
N 2853.86 9.85294 74.07210000000001 14053 7027
N 2854.67 9.362130000000001 74.68810000000001 14054 7027
N 2402.67 140.3 57.6008 14055 7028
N 2403.63 140.398 58.163 14056 7028
N 2770.12 68.91 133.145 14057 7029
N 2769.36 68.3634 132.532 14058 7029
N 2771.21 117.121 113.967 14059 7030
N 2770.23 117.231 114.519 14060 7030
N 2729.35 148.038 35.5961 14061 7031
N 2730.1 148.861 35.6856 14062 7031
N 2471.6 75.06870000000001 108.379 14063 7032
N 2471.6 74.4936 107.419 14064 7032
N 2892.08 34.1872 45.9566 14065 7033
N 2892.57 34.7084 45.1095 14066 7033
N 2812.37 23.7427 54.4622 14067 7034
N 2812.76 23.2077 53.5588 14068 7034
N 2751.69 124.236 28.7495 14069 7035
N 2752.67 124.767 28.8057 14070 7035
N 2485.3 17.7316 85.19029999999999 14071 7036
N 2485.07 18.8147 85.07859999999999 14072 7036
N 2354 120.814 78.7587 14073 7037
N 2355.09 121.067 78.8623 14074 7037
N 2530.1 125.306 124.427 14075 7038
N 2530.22 125.422 125.539 14076 7038
N 2515.85 112.442 144.491 14077 7039
N 2516.57 113.291 144.337 14078 7039
N 2909.01 112.025 44.4311 14079 7040
N 2908.62 110.974 44.2782 14080 7040
N 2758.86 141.531 113.696 14081 7041
N 2758.21 141.692 112.805 14082 7041
N 2783.2 103.547 130.528 14083 7042
N 2782.76 104.511 130.893 14084 7042
N 2284.03 53.737 36.0742 14085 7043
N 2284.12 53.3327 35.0338 14086 7043
N 2706.85 52.6005 44.7431 14087 7044
N 2707.52 52.1366 45.5162 14088 7044
N 2404.48 54.0803 31.8274 14089 7045
N 2404.18 53.6429 32.8122 14090 7045
N 2712.67 107.718 137.956 14091 7046
N 2711.82 106.982 137.999 14092 7046
N 2745.44 58.9305 141.686 14093 7047
N 2744.82 58.2483 141.046 14094 7047
N 2654.59 100.821 36.3957 14095 7048
N 2654.06 100.623 37.3549 14096 7048
N 2866.81 77.3272 57.7778 14097 7049
N 2867.06 76.9093 58.7756 14098 7049
N 3222.36 55.0222 9.901260000000001 14099 7050
N 3222.34 54.9705 8.784700000000001 14100 7050
N 2449.94 14.186 66.51690000000001 14101 7051
N 2449.7 14.0765 67.5993 14102 7051
N 2549.37 34.7396 64.62860000000001 14103 7052
N 2550.39 34.4985 65.032 14104 7052
N 2589.12 72.6756 56.0935 14105 7053
N 2588.33 71.96040000000001 56.464 14106 7053
N 2027.17 33.5842 113.003 14107 7054
N 2027.45 32.5727 112.602 14108 7054
N 2436.01 60.6716 74.0034 14109 7055
N 2435.76 59.6787 74.4534 14110 7055
N 2734.36 144.303 56.79 14111 7056
N 2734.05 145.324 56.4517 14112 7056
N 2747.51 113.275 72.8908 14113 7057
N 2747.33 112.219 72.6392 14114 7057
N 2601.63 49.2615 34.6787 14115 7058
N 2601.94 49.3818 33.6099 14116 7058
N 2730.82 5.09367 136.285 14117 7059
N 2730.51 4.12916 136.755 14118 7059
N 2720.69 56.3352 135.711 14119 7060
N 2720.16 56.9923 136.443 14120 7060
N 2537.98 23.2945 100.52 14121 7061
N 2539.03 22.9441 100.395 14122 7061
N 2592.89 76.6207 6.70449 14123 7062
N 2592.8 75.7861 7.43084 14124 7062
N 2890.99 93.7058 73.5324 14125 7063
N 2891.5 93.9684 72.56529999999999 14126 7063
N 2779.59 73.1927 81.1532 14127 7064
N 2778.54 72.7568 81.1696 14128 7064
N 2424.21 107.243 60.2808 14129 7065
N 2424.22 107.05 59.1773 14130 7065
N 2323.07 96.54340000000001 103.843 14131 7066
N 2323.76 97.3969 104.032 14132 7066
N 2385.6 148.031 55.2948 14133 7067
N 2384.94 148.437 56.1052 14134 7067
N 2506.54 20.0651 11.0525 14135 7068
N 2506.75 20.6641 10.1309 14136 7068
N 2565.09 47.5676 115.1 14137 7069
N 2564.84 46.7958 115.864 14138 7069
N 2787.76 20.1375 40.6505 14139 7070
N 2787.19 20.081 41.6007 14140 7070
N 2568.38 10.392 89.3481 14141 7071
N 2569.02 10.4286 90.2694 14142 7071
N 2313.35 98.71380000000001 69.90989999999999 14143 7072
N 2314.27 99.1768 70.33110000000001 14144 7072
N 3052.24 20.3868 119.112 14145 7073
N 3053.33 20.5659 119.208 14146 7073
N 2464.82 43.6089 68.1067 14147 7074
N 2464.23 43.6133 67.1692 14148 7074
N 2584.15 129.571 31.5349 14149 7075
N 2584.87 130.261 31.024 14150 7075
N 2516.24 94.8472 107.628 14151 7076
N 2515.62 94.0158 107.217 14152 7076
N 2789.94 36.3022 147.703 14153 7077
N 2790.79 35.6222 147.483 14154 7077
N 2400.46 121.89 78.9466 14155 7078
N 2399.67 121.674 78.19119999999999 14156 7078
N 2623.79 58.4005 76.3359 14157 7079
N 2623.57 57.5799 77.0671 14158 7079
N 2531.31 147.726 7.16809 14159 7080
N 2531.99 148.294 6.49261 14160 7080
N 2386.67 81.117 138.012 14161 7081
N 2387.78 81.164 138.182 14162 7081
N 2523.53 84.5889 119.669 14163 7082
N 2522.71 83.8716 119.926 14164 7082
N 2650.63 9.76013 133.563 14165 7083
N 2651.5 9.52281 132.902 14166 7083
N 2558.13 23.1593 89.5284 14167 7084
N 2558.4 24.2437 89.4121 14168 7084
N 2536.08 123.841 32.5935 14169 7085
N 2537.01 123.48 33.1055 14170 7085
N 3180.69 59.776 117.085 14171 7086
N 3181.63 59.5748 116.503 14172 7086
N 2528 69.7208 142.458 14173 7087
N 2526.93 70.0408 142.539 14174 7087
N 2888.54 79.26519999999999 21.6073 14175 7088
N 2888.37 80.04900000000001 22.3817 14176 7088
N 2536.06 12.9553 42.7255 14177 7089
N 2535.57 12.5037 43.6245 14178 7089
N 2701.86 125.246 69.3503 14179 7090
N 2702.01 124.507 70.1726 14180 7090
N 2683.44 7.41946 71.8792 14181 7091
N 2684.09 7.21338 72.7587 14182 7091
N 2941.39 39.534 140.473 14183 7092
N 2941.77 39.5203 139.431 14184 7092
N 2637.65 26.3797 129.646 14185 7093
N 2638.16 25.4453 129.996 14186 7093
N 2549.81 54.6273 70.2089 14187 7094
N 2550.3 53.6282 70.1159 14188 7094
N 2844.82 89.49460000000001 31.4673 14189 7095
N 2844.17 89.6472 32.371 14190 7095
N 2253.02 31.0725 62.9558 14191 7096
N 2253.36 31.8201 63.7133 14192 7096
N 2620.48 57.6183 122.592 14193 7097
N 2619.96 58.2874 123.312 14194 7097
N 3229.9 118.084 58.1326 14195 7098
N 3229.04 117.586 57.6284 14196 7098
N 2948.36 12.3035 85.1951 14197 7099
N 2947.55 13.0818 85.2895 14198 7099
N 3233.12 82.2396 24.5816 14199 7100
N 3233.78 82.4881 25.4497 14200 7100
N 2522.79 98.5907 117.534 14201 7101
N 2523.25 97.59050000000001 117.744 14202 7101
N 2739.12 91.9645 12.4616 14203 7102
N 2739.54 91.72369999999999 13.4748 14204 7102
N 2852.71 7.33012 76.9376 14205 7103
N 2852.96 7.60027 77.99460000000001 14206 7103
N 2597.98 14.6506 121.983 14207 7104
N 2597 15.0362 121.612 14208 7104
N 2533.04 59.3947 133.509 14209 7105
N 2533.31 58.3119 133.623 14210 7105
N 2675.28 121.687 109.307 14211 7106
N 2674.81 120.754 109.723 14212 7106
N 2778.17 84.10209999999999 5.97547 14213 7107
N 2778.76 83.6765 5.12434 14214 7107
N 2860.39 3.79462 95.6465 14215 7108
N 2859.9 3.13166 94.8814 14216 7108
N 2980.32 126.738 75.0145 14217 7109
N 2979.84 127.453 74.301 14218 7109
N 2533.55 142.154 102.649 14219 7110
N 2534.63 142.306 102.887 14220 7110
N 2585.57 34.8396 70.6649 14221 7111
N 2585.68 34.5801 71.7504 14222 7111
N 2755.87 11.5154 121.848 14223 7112
N 2755.71 12.5659 121.504 14224 7112
N 2602.19 70.15300000000001 101.725 14225 7113
N 2601.15 70.5646 101.712 14226 7113
N 2421.87 145.206 59.5694 14227 7114
N 2422.49 144.278 59.5643 14228 7114
N 2696.85 47.2353 149.624 14229 7115
N 2697.32 47.7174 148.732 14230 7115
N 2134.07 9.277150000000001 108.056 14231 7116
N 2133.49 9.31015 107.102 14232 7116
N 2540.82 54.6361 90.13720000000001 14233 7117
N 2539.85 54.733 90.68129999999999 14234 7117
N 2741.78 99.1354 38.0581 14235 7118
N 2741.08 99.2265 37.1666 14236 7118
N 2755.09 87.0448 80.6913 14237 7119
N 2754.54 87.0162 81.6666 14238 7119
N 2230.8 66.2902 66.2839 14239 7120
N 2230.51 66.3964 65.20059999999999 14240 7120
N 2707.86 72.9265 37.876 14241 7121
N 2707 72.2167 37.9716 14242 7121
N 2989.25 36.0102 35.6454 14243 7122
N 2989.58 35.3523 34.7971 14244 7122
N 2326.64 130.484 105.719 14245 7123
N 2326.4 129.781 104.875 14246 7123
N 2262.06 129.198 144.677 14247 7124
N 2262.67 129.386 145.599 14248 7124
N 2744.93 119.162 114.029 14249 7125
N 2745.81 119.079 114.7 14250 7125
N 2506.81 136.301 127.991 14251 7126
N 2507.38 135.337 128.027 14252 7126
N 2726.33 76.6708 66.35250000000001 14253 7127
N 2726.53 77.71380000000001 66.7392 14254 7127
N 3128.96 61.9884 77.3066 14255 7128
N 3129.47 61.8994 78.29940000000001 14256 7128
N 2490.29 53.8588 99.9357 14257 7129
N 2491.06 53.6982 99.1416 14258 7129
N 2680.49 24.6962 40.5599 14259 7130
N 2680.99 24.7432 39.5767 14260 7130
N 2306.75 62.5895 33.6499 14261 7131
N 2307.6 62.8784 32.9726 14262 7131
N 2351.44 53.0337 85.1026 14263 7132
N 2351.12 54.0779 85.3638 14264 7132
N 2702.76 0.3299 95.0514 14265 7133
N 2702.1 1.04359 95.6412 14266 7133
N 2258.92 37.8208 5.89682 14267 7134
N 2259.42 37.947 6.88241 14268 7134
N 2534.29 70.4789 41.7035 14269 7135
N 2533.2 70.6947 41.7302 14270 7135
N 2607.42 106.838 69.148 14271 7136
N 2607.1 107.514 69.9804 14272 7136
N 2459.79 47.9005 87.3674 14273 7137
N 2460.01 46.9464 87.90940000000001 14274 7137
N 2586.58 138.813 30.1405 14275 7138
N 2585.91 139.708 30.0923 14276 7138
N 2330.6 81.5166 98.349 14277 7139
N 2331.54 81.819 98.8539 14278 7139
N 2821.03 119.284 43.1236 14279 7140
N 2821.92 118.611 43.0724 14280 7140
N 2799.72 63.7802 147.419 14281 7141
N 2799.58 62.7495 147.007 14282 7141
N 2765.79 148.034 98.46429999999999 14283 7142
N 2766.66 147.394 98.7165 14284 7142
N 2520.1 45.1402 108.287 14285 7143
N 2520.96 44.6668 108.836 14286 7143
N 2702.98 29.4692 121.506 14287 7144
N 2702.57 29.3806 122.544 14288 7144
N 2902.59 139.124 74.6236 14289 7145
N 2902.88 139.255 75.693 14290 7145
N 2685.1 56.1664 68.2162 14291 7146
N 2684.48 55.6307 67.45959999999999 14292 7146
N 2833.56 18.7082 99.49209999999999 14293 7147
N 2833.07 19.703 99.3686 14294 7147
N 2855.07 147.947 104.938 14295 7148
N 2856.16 147.963 105.179 14296 7148
N 2977.26 69.1031 40.4166 14297 7149
N 2978.07 68.9611 39.6536 14298 7149
N 2630.27 59.7715 118.055 14299 7150
N 2630.13 60.8807 118.13 14300 7150
N 2732.92 126.679 133.893 14301 7151
N 2733.38 127.68 134.092 14302 7151
N 2551.57 9.006119999999999 116.38 14303 7152
N 2551.93 9.664759999999999 117.2 14304 7152
N 2837.34 20.7782 76.7304 14305 7153
N 2836.31 21.1204 76.9131 14306 7153
N 2507.07 118.154 130.013 14307 7154
N 2507.19 118.356 131.105 14308 7154
N 2523.42 70.30589999999999 44.1831 14309 7155
N 2522.59 70.9693 43.8799 14310 7155
N 2611.92 125.324 86.38639999999999 14311 7156
N 2611.79 125.967 85.4936 14312 7156
N 2724.29 85.3745 60.8215 14313 7157
N 2723.27 85.1658 61.2416 14314 7157
N 2770.84 75.2718 15.7634 14315 7158
N 2770.13 75.5852 14.9523 14316 7158
N 2968.71 33.7924 79.3145 14317 7159
N 2969.2 34.8046 79.3134 14318 7159
N 2699.17 73.9645 148.354 14319 7160
N 2699.04 74.60720000000001 149.269 14320 7160
N 2705.23 110.611 147.254 14321 7161
N 2705.76 109.776 147.782 14322 7161
N 2462.79 103.058 106.879 14323 7162
N 2462.96 102.969 105.777 14324 7162
N 2596.95 110.173 1.4247 14325 7163
N 2595.98 110.089 1.96504 14326 7163
N 2552.97 74.32389999999999 2.34333 14327 7164
N 2552.75 75.32380000000001 1.89641 14328 7164
N 2277.3 120.77 99.6557 14329 7165
N 2276.38 120.438 100.201 14330 7165
N 2833.61 98.2585 71.0806 14331 7166
N 2833.03 97.31950000000001 71.25449999999999 14332 7166
N 2516.76 20.3897 11.1822 14333 7167
N 2515.82 20.9014 11.5068 14334 7167
N 2846.27 96.9682 64.3398 14335 7168
N 2846.95 97.2488 65.1878 14336 7168
N 3017.72 84.61450000000001 70.6986 14337 7169
N 3016.84 84.17449999999999 71.2259 14338 7169
N 3023.81 49.3378 134.199 14339 7170
N 3023.29 48.351 134.127 14340 7170
N 2921.5 80.98099999999999 145.04 14341 7171
N 2922.43 80.49630000000001 144.658 14342 7171
N 2664.92 26.2288 18.1394 14343 7172
N 2665.01 27.2922 17.7995 14344 7172
N 2783.1 66.2675 110.187 14345 7173
N 2783 67.3768 110.095 14346 7173
N 2341.47 60.0507 12.7848 14347 7174
N 2341.59 58.9726 13.047 14348 7174
N 2591.74 19.7434 0.210158 14349 7175
N 2592.74 19.9951 149.738 14350 7175
N 2518.66 66.6622 142.047 14351 7176
N 2519.15 66.8857 141.068 14352 7176
N 2701.35 40.8178 87.78879999999999 14353 7177
N 2700.85 40.132 88.5085 14354 7177
N 2225 2.1452 8.39287 14355 7178
N 2225.19 1.56045 9.321580000000001 14356 7178
N 2768.63 54.0257 66.768 14357 7179
N 2767.64 54.0171 66.2491 14358 7179
N 2609.75 114.135 63.4999 14359 7180
N 2609.52 114.075 64.5868 14360 7180
N 2783.45 75.0998 95.3758 14361 7181
N 2782.34 75.12730000000001 95.39570000000001 14362 7181
N 2760.47 12.1955 24.1982 14363 7182
N 2761.19 11.3493 24.0431 14364 7182
N 3211.17 114.752 44.62 14365 7183
N 3210.94 113.981 43.8517 14366 7183
N 2579.53 149.766 142.483 14367 7184
N 2579.98 149.6 141.469 14368 7184
N 3101.04 23.8346 147.39 14369 7185
N 3099.98 24.2131 147.394 14370 7185
N 2841.46 53.6497 75.0462 14371 7186
N 2840.56 54.0601 75.5711 14372 7186
N 2910.63 59.9407 66.06440000000001 14373 7187
N 2910.36 58.8535 66.181 14374 7187
N 2914.75 26.8329 105.148 14375 7188
N 2913.74 26.6285 105.614 14376 7188
N 3012.49 74.9984 149.1 14377 7189
N 3012.2 75.2547 0.1402 14378 7189
N 2712.47 28.1376 57.3789 14379 7190
N 2713.02 28.2794 56.4121 14380 7190
N 2428.96 50.2735 7.83947 14381 7191
N 2429.37 50.4905 8.85825 14382 7191
N 2855.54 63.5776 40.3574 14383 7192
N 2854.72 63.6697 39.6086 14384 7192
N 2767.02 132.386 92.1562 14385 7193
N 2767.33 132.662 91.11490000000001 14386 7193
N 2374.31 41.9182 73.6703 14387 7194
N 2375.11 42.3223 73.0136 14388 7194
N 2791.77 22.4014 126.322 14389 7195
N 2791.97 21.4409 125.795 14390 7195
N 2404.08 138.997 87.2799 14391 7196
N 2404.04 137.984 87.75149999999999 14392 7196
N 2479.48 22.4855 75.86879999999999 14393 7197
N 2478.86 23.3501 76.16759999999999 14394 7197
N 2187.63 21.1127 88.2427 14395 7198
N 2187.54 20.7611 87.18049999999999 14396 7198
N 2921.4 148.409 62.6158 14397 7199
N 2921.57 149.485 62.3741 14398 7199
N 2190.3 81.6112 145.847 14399 7200
N 2190.94 82.44759999999999 146.22 14400 7200
N 2785.32 64.67449999999999 134.018 14401 7201
N 2784.77 65.4248 134.651 14402 7201
N 2887.92 64.7567 126.452 14403 7202
N 2887.08 64.2462 126.985 14404 7202
N 2534.9 110.603 65.9628 14405 7203
N 2534.52 110.741 64.9162 14406 7203
N 2807.46 26.2973 81.99039999999999 14407 7204
N 2808.02 25.4009 81.5954 14408 7204
N 2795.19 47.2071 147.926 14409 7205
N 2796.27 47.2518 148.169 14410 7205
N 2428.62 41.5907 118.214 14411 7206
N 2429.62 42.0804 118.349 14412 7206
N 2279.5 95.4948 118.867 14413 7207
N 2280 94.6189 119.351 14414 7207
N 2882.55 47.945 92.572 14415 7208
N 2882.91 47.7562 93.6152 14416 7208
N 2564.94 95.3989 61.4654 14417 7209
N 2564.32 96.3275 61.4699 14418 7209
N 2580.69 132.443 50.6684 14419 7210
N 2580.7 131.941 49.6608 14420 7210
N 2751.29 39.3779 10.0921 14421 7211
N 2750.56 38.7166 10.6084 14422 7211
N 2715.27 5.27039 4.31015 14423 7212
N 2714.74 4.56158 4.99096 14424 7212
N 2821.94 127.755 36.6436 14425 7213
N 2822.94 128.01 36.2089 14426 7213
N 2656.62 132.787 22.0265 14427 7214
N 2656.75 133.52 22.8604 14428 7214
N 2951.26 40.448 69.90949999999999 14429 7215
N 2950.16 40.3374 69.8593 14430 7215
N 2620.1 18.0842 137.056 14431 7216
N 2620.01 19.1149 136.628 14432 7216
N 2616.68 66.9962 133.814 14433 7217
N 2615.83 66.43729999999999 134.278 14434 7217
N 2425.07 66.8518 49.1512 14435 7218
N 2424.31 67.6665 49.2474 14436 7218
N 2704.14 73.5718 138.1 14437 7219
N 2704.27 73.05840000000001 139.085 14438 7219
N 2479.61 135.938 85.1189 14439 7220
N 2480.29 136.451 84.3753 14440 7220
N 2626.37 96.59829999999999 59.9864 14441 7221
N 2626.67 96.42400000000001 58.922 14442 7221
N 2723.89 55.0174 0.6447000000000001 14443 7222
N 2723.7 55.5755 1.59592 14444 7222
N 2992.58 67.1904 16.5535 14445 7223
N 2991.76 67.84699999999999 16.1609 14446 7223
N 2905.13 110.421 52.4264 14447 7224
N 2904.31 109.739 52.0705 14448 7224
N 2577.74 60.243 90.7214 14449 7225
N 2576.91 60.1187 91.4774 14450 7225
N 2936.74 99.0812 14.7176 14451 7226
N 2937.31 98.4705 13.9852 14452 7226
N 2877.46 95.9563 85.4439 14453 7227
N 2876.38 95.96599999999999 85.1069 14454 7227
N 2121.17 143.795 67.1555 14455 7228
N 2122.18 143.844 67.61490000000001 14456 7228
N 3155.32 6.55284 79.2093 14457 7229
N 3154.23 6.78312 79.34999999999999 14458 7229
N 2624.43 62.3388 69.3394 14459 7230
N 2624.04 63.3183 69.71120000000001 14460 7230
N 2521.14 78.25230000000001 86.6279 14461 7231
N 2521.71 77.3057 86.76519999999999 14462 7231
N 2922.74 119.407 67.8653 14463 7232
N 2923.65 119.629 67.25 14464 7232
N 2725.67 139.509 31.2759 14465 7233
N 2726.7 139.475 30.8315 14466 7233
N 2482.72 84.55419999999999 19.5737 14467 7234
N 2483.83 84.4984 19.6779 14468 7234
N 2849.32 110.781 144.044 14469 7235
N 2849.75 111.663 144.568 14470 7235
N 2708.46 50.4597 133.501 14471 7236
N 2708.91 50.1947 134.5 14472 7236
N 2497.65 54.4332 81.6506 14473 7237
N 2497.16 55.4182 81.40309999999999 14474 7237
N 2434.6 67.57599999999999 103.011 14475 7238
N 2435.3 68.2928 102.489 14476 7238
N 2579.97 31.4874 96.1249 14477 7239
N 2579.75 32.3719 95.48260000000001 14478 7239
N 2070.88 116.751 60.9948 14479 7240
N 2069.98 117.404 61.1354 14480 7240
N 2610.21 22.8536 33.9529 14481 7241
N 2609.23 23.2378 33.5772 14482 7241
N 2834.07 34.4913 141.307 14483 7242
N 2834.72 33.6448 140.953 14484 7242
N 2651.45 117.163 26.4328 14485 7243
N 2650.62 117.901 26.6383 14486 7243
N 2305.62 13.2757 17.9975 14487 7244
N 2306.54 13.3069 17.3415 14488 7244
N 2205.68 103.066 76.6938 14489 7245
N 2205.6 104.112 76.33329999999999 14490 7245
N 2822.02 56.779 117.352 14491 7246
N 2821.88 57.8877 117.425 14492 7246
N 2953.64 128.308 57.0248 14493 7247
N 2954.17 128.939 57.7821 14494 7247
N 2782.57 145.68 72.6647 14495 7248
N 2781.9 144.811 72.4722 14496 7248
N 3148.59 140.707 60.3527 14497 7249
N 3148.71 140.272 59.3337 14498 7249
N 2324.3 124.84 134.933 14499 7250
N 2323.45 125.101 135.612 14500 7250
N 2492.62 16.8679 74.95010000000001 14501 7251
N 2492.85 17.9629 74.869 14502 7251
N 3214.76 57.0978 18.005 14503 7252
N 3215.49 57.3092 17.1948 14504 7252
N 2521.44 20.8789 140.998 14505 7253
N 2521.55 19.8272 140.61 14506 7253
N 2893.11 112.173 4.86132 14507 7254
N 2892.68 111.218 5.2584 14508 7254
N 3189.3 127.545 121.241 14509 7255
N 3189.3 126.463 120.956 14510 7255
N 2623.05 59.1681 142.318 14511 7256
N 2622.91 58.4995 143.21 14512 7256
N 2150.97 130.184 136.379 14513 7257
N 2150.28 130.843 136.952 14514 7257
N 3051.56 41.9749 144.146 14515 7258
N 3052.28 41.2507 143.677 14516 7258
N 3097.27 46.2976 92.6204 14517 7259
N 3096.53 46.446 91.79430000000001 14518 7259
N 2574.8 77.0946 36.7576 14519 7260
N 2575.39 76.1756 36.9674 14520 7260
N 2838.71 78.5241 34.4174 14521 7261
N 2839.82 78.6559 34.3957 14522 7261
N 2179.22 23.6002 103.392 14523 7262
N 2178.23 24.039 103.136 14524 7262
N 2470.07 25.4073 132.791 14525 7263
N 2470.73 25.7094 131.947 14526 7263
N 2815.73 56.7832 107.101 14527 7264
N 2816.33 57.0964 107.998 14528 7264
N 3063.47 66.0437 11.6835 14529 7265
N 3063.18 65.0916 12.2014 14530 7265
N 3012.61 125.142 109.593 14531 7266
N 3011.68 124.502 109.449 14532 7266
N 2901.46 44.8843 80.26690000000001 14533 7267
N 2900.62 45.438 79.7901 14534 7267
N 2324.95 26.3026 17.5884 14535 7268
N 2324.74 27.2608 18.1319 14536 7268
N 2460.77 9.9278 136.239 14537 7269
N 2459.76 10.4025 136.22 14538 7269
N 2377.16 39.6753 149.815 14539 7270
N 2376.39 39.8139 149.013 14540 7270
N 2592.4 79.48860000000001 70.1426 14541 7271
N 2593.02 79.4524 71.0685 14542 7271
N 2510.48 34.4202 94.2867 14543 7272
N 2511.57 34.6399 94.3535 14544 7272
N 2367.45 127.909 58.2919 14545 7273
N 2367.4 126.899 57.8125 14546 7273
N 2280.53 113.999 101.906 14547 7274
N 2280.96 114.88 101.368 14548 7274
N 2585.68 0.502509 72.502 14549 7275
N 2586.12 1.09786 73.3321 14550 7275
N 2886.15 51.4127 94.4234 14551 7276
N 2886.59 51.7513 95.3929 14552 7276
N 2912.49 101.941 142.356 14553 7277
N 2912.61 103.013 142.653 14554 7277
N 2299.46 84.61020000000001 139.024 14555 7278
N 2299.74 85.316 139.843 14556 7278
N 2437.54 110.878 129.12 14557 7279
N 2438.16 110.115 128.597 14558 7279
N 2792.51 69.21040000000001 78.46420000000001 14559 7280
N 2792.44 68.43859999999999 77.6549 14560 7280
N 2753.38 127.733 93.4259 14561 7281
N 2754.4 127.309 93.21980000000001 14562 7281
N 2417.97 126.678 141.825 14563 7282
N 2417.16 126.602 142.598 14564 7282
N 2762.97 97.6827 129.158 14565 7283
N 2762.53 97.45050000000001 130.163 14566 7283
N 2324.36 43.2348 86.19159999999999 14567 7284
N 2324.75 43.7104 85.2672 14568 7284
N 2859.53 37.4715 87.4815 14569 7285
N 2860.13 38.3601 87.8091 14570 7285
N 3024.65 124.088 114.078 14571 7286
N 3023.58 124.368 113.935 14572 7286
N 2400.45 35.8753 79.5937 14573 7287
N 2399.68 36.1695 80.35120000000001 14574 7287
N 2679.58 40.3862 131.182 14575 7288
N 2680.45 39.7011 131.021 14576 7288
N 2037.79 46.1746 36.2452 14577 7289
N 2038.4 45.6486 37.0146 14578 7289
N 2219.8 36.3864 25.8564 14579 7290
N 2220.75 36.701 25.3534 14580 7290
N 2608.64 134.528 132.162 14581 7291
N 2608.45 134.929 133.187 14582 7291
N 2746.61 43.8927 120.387 14583 7292
N 2746.4 42.8879 120.846 14584 7292
N 2627.39 88.0224 140.519 14585 7293
N 2627.19 86.9425 140.739 14586 7293
N 2417.62 139.489 113.093 14587 7294
N 2416.54 139.436 112.834 14588 7294
N 2801.63 138.69 87.85250000000001 14589 7295
N 2801.04 137.814 88.1987 14590 7295
N 2285.54 39.2492 89.6371 14591 7296
N 2284.63 38.5921 89.6884 14592 7296
N 3167.45 99.1151 136.731 14593 7297
N 3167.54 99.8797 135.912 14594 7297
N 2581.23 38.0476 86.3472 14595 7298
N 2581.39 37.7428 85.2928 14596 7298
N 2303.8 22.922 80.8618 14597 7299
N 2304.59 22.4182 80.2471 14598 7299
N 2571.59 147.382 2.13079 14599 7300
N 2571.3 147.103 1.09957 14600 7300
N 2972.46 37.7127 140.006 14601 7301
N 2972.89 38.7385 140.16 14602 7301
N 2779.81 104.722 69.48869999999999 14603 7302
N 2779.27 103.993 70.1461 14604 7302
N 2981.71 114.024 88.42619999999999 14605 7303
N 2982.36 114.593 89.1382 14606 7303
N 2402.33 110.771 54.0415 14607 7304
N 2401.23 110.993 53.9297 14608 7304
N 2552.56 140.336 124.402 14609 7305
N 2553.03 139.333 124.215 14610 7305
N 2452.62 38.841 98.5421 14611 7306
N 2452.16 38.1698 99.3314 14612 7306
N 2426.13 60.2896 72.12220000000001 14613 7307
N 2425.54 59.5168 71.5544 14614 7307
N 2893.5 143.029 97.825 14615 7308
N 2893.64 143.226 98.9169 14616 7308
N 2785.29 36.3444 78.027 14617 7309
N 2785.25 35.2226 77.9032 14618 7309
N 2434.34 113.337 95.0635 14619 7310
N 2433.69 112.694 94.4115 14620 7310
N 2845.68 115.735 62.9351 14621 7311
N 2846.42 116.251 62.2648 14622 7311
N 2890.04 14.2381 13.416 14623 7312
N 2890.15 15.3276 13.2015 14624 7312
N 2282.54 77.5972 43.0618 14625 7313
N 2282.19 76.587 42.7719 14626 7313
N 2641.8 2.41316 117.863 14627 7314
N 2640.75 2.18917 117.602 14628 7314
N 3114.94 11.7309 108.466 14629 7315
N 3113.9 11.7194 108.071 14630 7315
N 2698.16 36.1491 69.23950000000001 14631 7316
N 2697.7 36.0417 70.2516 14632 7316
N 2580.63 138.839 70.4528 14633 7317
N 2580.32 139.627 69.7238 14634 7317
N 3037.53 91.3772 115.15 14635 7318
N 3038.45 91.7813 115.646 14636 7318
N 2875.65 113.31 73.66419999999999 14637 7319
N 2875.13 112.514 74.26600000000001 14638 7319
N 3113.14 124.241 105.833 14639 7320
N 3113.95 124.038 105.096 14640 7320
N 3169.83 80.3235 43.3344 14641 7321
N 3170.41 79.6836 44.0502 14642 7321
N 2470.22 120.868 89.7787 14643 7322
N 2469.42 121.348 89.1857 14644 7322
N 3167.05 12.2827 33.6542 14645 7323
N 3167.21 11.4301 32.949 14646 7323
N 2307.57 145.054 138.983 14647 7324
N 2307.4 144.631 140.011 14648 7324
N 2986.44 24.8856 2.8877 14649 7325
N 2985.33 24.8398 2.94484 14650 7325
N 2973.66 23.926 81.9109 14651 7326
N 2974.26 24.7985 81.56180000000001 14652 7326
N 2871.18 28.7371 80.5827 14653 7327
N 2870.49 27.8928 80.3493 14654 7327
N 2172.37 82.59310000000001 16.3412 14655 7328
N 2173.16 81.80329999999999 16.3822 14656 7328
N 3102.9 105.472 42.4393 14657 7329
N 3102.56 105.814 41.4212 14658 7329
N 2861.94 3.16705 72.5429 14659 7330
N 2862.75 2.89221 73.2604 14660 7330
N 2307.17 138.262 81.9832 14661 7331
N 2307.83 137.998 81.13809999999999 14662 7331
N 2714.6 28.769 123.684 14663 7332
N 2713.62 28.5712 123.181 14664 7332
N 3035.47 143.697 135.874 14665 7333
N 3036.44 143.473 136.361 14666 7333
N 2661.36 93.65470000000001 137.153 14667 7334
N 2660.62 93.9684 136.381 14668 7334
N 2800.67 71.1199 81.2581 14669 7335
N 2800.25 70.1314 81.5228 14670 7335
N 2666.91 77.8019 75.7975 14671 7336
N 2666.07 78.03279999999999 76.49939999999999 14672 7336
N 2154.23 129.598 36.5418 14673 7337
N 2154.54 129.216 37.5432 14674 7337
N 2745.1 24.8029 143.152 14675 7338
N 2744.56 23.915 143.596 14676 7338
N 2831.6 46.9452 137.601 14677 7339
N 2832.19 46.4995 138.436 14678 7339
N 2455.41 112.862 78.6675 14679 7340
N 2454.45 112.7 79.2115 14680 7340
N 2823.03 22.6988 126.83 14681 7341
N 2822.33 22.7684 125.966 14682 7341
N 2563.16 21.6509 40.28 14683 7342
N 2564.22 21.8907 40.5442 14684 7342
N 2376.71 65.7371 62.7282 14685 7343
N 2376.27 65.94070000000001 63.7419 14686 7343
N 2679.63 110.248 71.4014 14687 7344
N 2678.76 110.969 71.3442 14688 7344
N 2981.96 0.176535 44.9374 14689 7345
N 2981.11 0.392795 44.2382 14690 7345
N 2793.18 15.5169 115.025 14691 7346
N 2793.77 14.8021 115.655 14692 7346
N 2738.45 121.04 102.228 14693 7347
N 2738.26 120.913 101.133 14694 7347
N 2705.61 77.62050000000001 139.7 14695 7348
N 2704.63 77.09220000000001 139.786 14696 7348
N 2781.23 58.2327 66.04640000000001 14697 7349
N 2782.27 57.8814 66.2212 14698 7349
N 2715.78 28.714 98.5647 14699 7350
N 2716.87 28.4211 98.5446 14700 7350
N 2500.68 147.156 126.372 14701 7351
N 2501.42 146.319 126.44 14702 7351
N 3124.25 36.6741 98.6484 14703 7352
N 3123.61 36.1139 99.3856 14704 7352
N 2678.42 92.4337 120.513 14705 7353
N 2678.35 93.4646 120.91 14706 7353
N 2815.85 72.0643 54.5766 14707 7354
N 2816.44 71.1221 54.6725 14708 7354
N 2447.64 108.194 4.37148 14709 7355
N 2446.88 107.452 4.01303 14710 7355
N 2556.08 36.5309 94.57729999999999 14711 7356
N 2555.44 37.441 94.52630000000001 14712 7356
N 2446.01 123.075 146.491 14713 7357
N 2445.93 122.643 145.456 14714 7357
N 2578.05 40.2994 128.016 14715 7358
N 2578.46 41.3372 128.079 14716 7358
N 3222.55 27.6981 63.243 14717 7359
N 3222.24 28.6552 62.7475 14718 7359
N 2415.17 57.4219 35.4451 14719 7360
N 2414.94 56.423 35.8781 14720 7360
N 3026.72 136.233 56.6272 14721 7361
N 3025.71 136.622 56.9237 14722 7361
N 2627.26 125.534 125.413 14723 7362
N 2628.16 124.865 125.388 14724 7362
N 2251.82 78.54989999999999 10.1696 14725 7363
N 2251.08 77.9511 10.7622 14726 7363
N 2641.9 11.4876 30.9086 14727 7364
N 2642.67 12.1571 31.3814 14728 7364
N 2509.66 12.7042 15.7387 14729 7365
N 2509.09 11.8081 15.402 14730 7365
N 3183.24 37.0032 73.0682 14731 7366
N 3183.19 36.3951 72.1251 14732 7366
N 2544.47 44.7358 101.913 14733 7367
N 2545.25 44.596 101.118 14734 7367
N 2830.74 43.0633 122.799 14735 7368
N 2830.65 42.0468 122.34 14736 7368
N 2881.33 89.1298 141.516 14737 7369
N 2880.5 89.57810000000001 142.122 14738 7369
N 2618.94 134.763 131.918 14739 7370
N 2619.53 135.532 132.48 14740 7370
N 2072.32 55.6176 114.338 14741 7371
N 2071.56 55.307 113.586 14742 7371
N 2923.89 49.613 138.725 14743 7372
N 2923.23 48.8265 138.261 14744 7372
N 3079.43 99.0611 49.6648 14745 7373
N 3079.32 98.6746 48.6272 14746 7373
N 2907.27 114.724 144.302 14747 7374
N 2908.17 115.198 144.735 14748 7374
N 3047.88 130.188 16.2865 14749 7375
N 3047.09 129.421 16.219 14750 7375
N 2416.71 54.3282 31.5495 14751 7376
N 2416.74 54.3389 32.6718 14752 7376
N 2368.84 7.63769 62.7066 14753 7377
N 2368.75 7.41908 61.6033 14754 7377
N 2796.74 142.865 127.371 14755 7378
N 2796.22 143.391 126.545 14756 7378
N 2341.77 3.671 60.6275 14757 7379
N 2342.67 4.30861 60.41 14758 7379
N 2973.38 102.608 92.08799999999999 14759 7380
N 2973.93 101.893 92.7427 14760 7380
N 2904.58 140.294 85.9136 14761 7381
N 2904.93 141.227 86.4105 14762 7381
N 2671.84 41.4601 139.418 14763 7382
N 2671.71 42.5601 139.261 14764 7382
N 2810.74 140.894 41.3786 14765 7383
N 2810.91 141.863 41.92 14766 7383
N 3155.63 0.848983 102.494 14767 7384
N 3156.6 0.643033 103.025 14768 7384
N 2335.44 50.7655 44.1408 14769 7385
N 2336.51 51.053 43.9089 14770 7385
N 2752.85 39.9417 117.541 14771 7386
N 2753.6 39.1749 117.251 14772 7386
N 2740.22 132.46 14.9835 14773 7387
N 2739.91 133.509 15.1545 14774 7387
N 2228.02 33.9574 100.539 14775 7388
N 2227.8 34.9943 100.87 14776 7388
N 2274.32 94.96169999999999 99.37430000000001 14777 7389
N 2274.42 95.8116 98.6238 14778 7389
N 2949.2 38.2502 20.6391 14779 7390
N 2949.38 39.2677 20.1932 14780 7390
N 2602.3 115.285 100.384 14781 7391
N 2601.87 116.207 99.9234 14782 7391
N 2179.86 137.46 34.9508 14783 7392
N 2179.12 137.578 35.7856 14784 7392
N 2968.91 146.717 110.464 14785 7393
N 2969.58 146.162 109.77 14786 7393
N 2728.37 132.209 55.33 14787 7394
N 2727.78 132.848 56.0318 14788 7394
N 2470.6 102.446 27.1651 14789 7395
N 2471.09 102.463 26.1593 14790 7395
N 2419.98 103.472 118.285 14791 7396
N 2419.93 102.469 117.779 14792 7396
N 2695.67 22.971 12.4797 14793 7397
N 2696.77 22.907 12.2868 14794 7397
N 2958.64 6.92077 21.0757 14795 7398
N 2959.38 6.88646 20.2465 14796 7398
N 2845.17 102.376 146.488 14797 7399
N 2846.03 101.853 146.989 14798 7399
N 2816.36 101.245 120.568 14799 7400
N 2816.76 102.048 121.232 14800 7400
N 2440.31 42.4419 131.238 14801 7401
N 2439.67 43.1686 130.677 14802 7401
N 2436.48 131.583 146.487 14803 7402
N 2436.57 130.622 145.923 14804 7402
N 2611.01 73.5068 35.8555 14805 7403
N 2611.38 74.21339999999999 35.0909 14806 7403
N 2671.41 96.2385 65.1611 14807 7404
N 2672.29 96.908 64.98860000000001 14808 7404
N 2729.7 60.0561 102.678 14809 7405
N 2730.25 61.0095 102.873 14810 7405
N 2433.24 54.633 49.0866 14811 7406
N 2433.76 53.6529 49.0893 14812 7406
N 2196.66 132.032 129.908 14813 7407
N 2195.85 132.562 130.463 14814 7407
N 2687.31 115.35 74.5394 14815 7408
N 2688.16 115.513 75.2685 14816 7408
N 2479.77 42.8465 76.4982 14817 7409
N 2480.17 42.0644 77.20010000000001 14818 7409
N 2882.17 120.027 78.5972 14819 7410
N 2883.03 120.66 78.2923 14820 7410
N 2861.65 56.5138 53.1731 14821 7411
N 2861.45 57.2976 53.9479 14822 7411
N 2283.54 38.7961 39.0841 14823 7412
N 2284.27 37.9432 38.9489 14824 7412
N 2725.17 137.526 43.8214 14825 7413
N 2724.68 138.527 43.6759 14826 7413
N 2526.32 26.8871 121.292 14827 7414
N 2527.1 27.4069 121.9 14828 7414
N 2882.63 50.5216 43.0093 14829 7415
N 2882.58 49.4024 42.9407 14830 7415
N 2543.24 28.6143 86.4581 14831 7416
N 2544.35 28.5218 86.54640000000001 14832 7416
N 2836.8 115.839 119.892 14833 7417
N 2836.14 114.931 120.02 14834 7417
N 2245.9 113.248 106.916 14835 7418
N 2246.78 113.653 106.368 14836 7418
N 2581.92 39.3994 134.075 14837 7419
N 2581.87 39.1352 132.991 14838 7419
N 2482.1 85.6835 77.68899999999999 14839 7420
N 2482.28 86.6425 78.24420000000001 14840 7420
N 2583.82 27.4027 100.075 14841 7421
N 2584.75 26.976 99.6515 14842 7421
N 2547.64 137.194 33.3248 14843 7422
N 2546.91 137.105 34.1799 14844 7422
N 2582.45 149.044 8.079370000000001 14845 7423
N 2581.77 149.244 8.94181 14846 7423
N 2617.74 125.625 142.363 14847 7424
N 2618.2 125.028 141.542 14848 7424
N 2550.18 119.256 86.0523 14849 7425
N 2550.81 120.104 86.4179 14850 7425
N 2665.61 99.0376 80.0035 14851 7426
N 2664.75 99.4913 80.5538 14852 7426
N 2475.94 24.2037 1.30077 14853 7427
N 2475.53 23.1689 1.38099 14854 7427
N 2721.59 14.7805 35.7063 14855 7428
N 2722.24 14.4824 36.5633 14856 7428
N 2592.96 90.7261 149.696 14857 7429
N 2593.25 91.3716 0.563454 14858 7429
N 3091.96 14.9091 41.0605 14859 7430
N 3091.61 15.3922 40.1109 14860 7430
N 2528.18 146.008 6.35201 14861 7431
N 2528.71 146.448 5.47465 14862 7431
N 3079.66 143.731 53.628 14863 7432
N 3078.74 143.439 53.0817 14864 7432
N 2495.8 149.912 98.8475 14865 7433
N 2495.37 0.940457 98.7092 14866 7433
N 2630.19 82.47020000000001 134.099 14867 7434
N 2630.27 81.7199 134.919 14868 7434
N 2524.95 51.0519 44.221 14869 7435
N 2523.98 50.5586 43.979 14870 7435
N 2427.36 131.82 140.736 14871 7436
N 2427.51 132.457 141.642 14872 7436
N 2499.92 10.1365 11.3636 14873 7437
N 2500.98 9.911210000000001 11.6676 14874 7437
N 2427.74 13.7983 20.9411 14875 7438
N 2428.12 13.7731 21.9935 14876 7438
N 2618.15 24.8578 132.743 14877 7439
N 2618.22 24.2594 131.798 14878 7439
N 2100.53 63.7443 74.7847 14879 7440
N 2099.91 63.848 73.857 14880 7440
N 2343.83 126.455 28.0177 14881 7441
N 2343.16 125.699 28.5416 14882 7441
N 2630.57 95.161 137.5 14883 7442
N 2630.8 95.947 138.256 14884 7442
N 2596.85 125.898 6.34322 14885 7443
N 2595.78 125.937 6.01535 14886 7443
N 2958.35 74.0193 60.7432 14887 7444
N 2959.1 73.2456 61.0355 14888 7444
N 2646.92 84.5869 65.6099 14889 7445
N 2647.18 84.3554 64.5412 14890 7445
N 2727.02 51.8746 22.0682 14891 7446
N 2726.42 52.6479 22.6203 14892 7446
N 2445.15 139.575 126.486 14893 7447
N 2445.16 139.446 127.596 14894 7447
N 2642.9 35.7637 30.9405 14895 7448
N 2642.15 35.5008 30.1461 14896 7448
N 2334.64 72.00660000000001 97.06010000000001 14897 7449
N 2334.21 72.857 97.6514 14898 7449
N 2586.32 50.5803 141.715 14899 7450
N 2585.44 50.9723 141.138 14900 7450
N 2544.41 109.927 116.13 14901 7451
N 2543.86 109.729 117.089 14902 7451
N 2935.46 92.82210000000001 113.082 14903 7452
N 2934.88 92.8826 114.033 14904 7452
N 3148.65 98.8777 26.2426 14905 7453
N 3149.16 99.84520000000001 26.4736 14906 7453
N 2642.95 133.924 101.807 14907 7454
N 2643.5 134.858 102.088 14908 7454
N 2727.82 46.5543 116.459 14909 7455
N 2728.69 45.8715 116.642 14910 7455
N 2280.2 67.9952 15.4917 14911 7456
N 2279.92 67.12520000000001 14.8459 14912 7456
N 2906.92 5.72953 128.286 14913 7457
N 2907.32 4.99766 129.034 14914 7457
N 2980.35 142.907 88.7259 14915 7458
N 2981.33 143.436 88.7439 14916 7458
N 2434.92 132.541 92.0881 14917 7459
N 2434.24 133.434 92.05929999999999 14918 7459
N 2636.41 102.947 144.103 14919 7460
N 2636.57 102.433 145.092 14920 7460
N 2507.12 31.4574 53.2914 14921 7461
N 2507.49 30.5274 53.7881 14922 7461
N 2452.85 12.8278 70.6955 14923 7462
N 2453.67 12.0665 70.6387 14924 7462
N 2645.37 78.6361 143.648 14925 7463
N 2644.7 77.8052 143.916 14926 7463
N 2268.66 40.1289 73.0063 14927 7464
N 2268.99 39.2651 72.3661 14928 7464
N 2043.15 17.451 112.818 14929 7465
N 2042.54 18.3852 112.904 14930 7465
N 2514.06 55.09 146.456 14931 7466
N 2513.52 55.0034 147.43 14932 7466
N 2592.39 74.8199 53.7735 14933 7467
N 2592.21 74.7436 54.8753 14934 7467
N 2844.04 82.5378 133.877 14935 7468
N 2843.66 81.7799 134.617 14936 7468
N 2781.31 28.2923 69.2877 14937 7469
N 2782.15 28.999 69.10290000000001 14938 7469
N 2507.32 38.7864 95.6673 14939 7470
N 2507.17 38.9177 94.5733 14940 7470
N 2690.12 101.118 75.7747 14941 7471
N 2690.83 100.26 75.9046 14942 7471
N 2889.69 91.3048 67.5288 14943 7472
N 2889.19 91.8426 68.3463 14944 7472
N 2566.75 102.678 0.490484 14945 7473
N 2567.14 102.539 149.465 14946 7473
N 2495.6 41.8838 138.216 14947 7474
N 2496.66 41.5811 138.375 14948 7474
N 2075.64 26.2158 113.134 14949 7475
N 2076.15 27.0764 113.639 14950 7475
N 2401.83 123.273 10.8273 14951 7476
N 2400.91 122.906 10.2976 14952 7476
N 2453.5 124.112 116.592 14953 7477
N 2452.88 123.649 115.811 14954 7477
N 2687.79 20.5434 74.8703 14955 7478
N 2688.77 20.0054 74.73439999999999 14956 7478
N 2287.66 79.958 131.756 14957 7479
N 2286.75 79.437 132.143 14958 7479
N 2378.34 7.31057 55.6201 14959 7480
N 2378.3 7.21768 54.4948 14960 7480
N 2496.64 126.143 23.1074 14961 7481
N 2496.55 125.764 24.1411 14962 7481
N 3097.16 143.659 33.9564 14963 7482
N 3098.11 143.065 33.9641 14964 7482
N 2918.78 148.098 59.4337 14965 7483
N 2919.86 148.244 59.1409 14966 7483
N 3005.1 5.17584 86.2025 14967 7484
N 3005.64 5.98783 85.6318 14968 7484
N 2982.58 20.8025 24.6696 14969 7485
N 2982.33 19.7606 24.9707 14970 7485
N 3045.58 80.7411 127.746 14971 7486
N 3046.11 80.6181 128.724 14972 7486
N 2559.89 65.5385 77.4537 14973 7487
N 2560.73 64.9798 76.96810000000001 14974 7487
N 3030.86 75.1219 101.455 14975 7488
N 3030.33 75.1122 100.471 14976 7488
N 2815.22 117.151 20.3726 14977 7489
N 2814.51 117.903 19.9444 14978 7489
N 2975.43 88.8706 58.332 14979 7490
N 2974.38 88.5401 58.1364 14980 7490
N 2682.1 79.4554 50.5905 14981 7491
N 2682.37 78.8087 51.463 14982 7491
N 2947.99 99.15479999999999 66.85639999999999 14983 7492
N 2947.06 98.70829999999999 67.2974 14984 7492
N 2629.27 117.777 69.34910000000001 14985 7493
N 2628.64 117.867 68.4303 14986 7493
N 2778.1 74.1561 134.736 14987 7494
N 2777.18 73.5166 134.834 14988 7494
N 3071.98 87.2196 111.691 14989 7495
N 3071.53 87.45359999999999 112.686 14990 7495
N 3002.57 113.511 81.96720000000001 14991 7496
N 3002.44 114.359 82.6861 14992 7496
N 2842.55 100.24 29.7562 14993 7497
N 2842.68 101.203 30.3159 14994 7497
N 2819.09 2.47877 102.713 14995 7498
N 2818.04 2.60784 102.386 14996 7498
N 2757.87 56.2212 43.1038 14997 7499
N 2757.23 57.042 42.677 14998 7499
N 2657.72 2.16612 1.04458 14999 7500
N 2657.27 3.14441 1.34739 15000 7500
N 3203.5 65.2983 17.7844 15001 7501
N 3203.86 64.76260000000001 16.8655 15002 7501
N 2934.47 28.0846 20.3467 15003 7502
N 2934.59 27.9699 21.4528 15004 7502
N 2871.95 99.3927 98.23260000000001 15005 7503
N 2872.3 100.272 98.8274 15006 7503
N 2863.23 118.556 67.15170000000001 15007 7504
N 2862.25 119.084 67.2106 15008 7504
N 2588.76 79.2269 141.148 15009 7505
N 2587.86 79.82559999999999 141.465 15010 7505
N 2992.34 55.1423 111.736 15011 7506
N 2993.21 55.381 112.408 15012 7506
N 2777.78 113.42 4.58823 15013 7507
N 2778.12 112.887 3.66668 15014 7507
N 2554.85 3.8469 36.0386 15015 7508
N 2554.42 4.67346 35.4228 15016 7508
N 2420.29 103.579 36.0007 15017 7509
N 2420.13 104.325 36.8132 15018 7509
N 2793.32 95.0886 26.872 15019 7510
N 2793.48 94.03579999999999 26.5201 15020 7510
N 2882.82 8.013479999999999 138.114 15021 7511
N 2883.08 6.99378 138.504 15022 7511
N 2883.08 108.765 96.9265 15023 7512
N 2883.99 109.416 96.83839999999999 15024 7512
N 2717.19 69.069 44.6397 15025 7513
N 2717.72 69.7975 45.305 15026 7513
N 2915.76 81.6403 98.00530000000001 15027 7514
N 2914.88 82.33240000000001 98.0253 15028 7514
N 2906.03 41.5654 123.448 15029 7515
N 2905.24 41.5769 124.226 15030 7515
N 3198.31 103.019 102.409 15031 7516
N 3199.26 103.51 102.739 15032 7516
N 2878.27 131.356 59.1619 15033 7517
N 2878.22 130.252 59.1762 15034 7517
N 2802.46 125.103 144.364 15035 7518
N 2802.23 124.01 144.422 15036 7518
N 2677.04 138.732 103.896 15037 7519
N 2676.74 139.212 102.938 15038 7519
N 2733.57 28.7456 14.5027 15039 7520
N 2733.05 27.9864 13.8568 15040 7520
N 2374.68 105.476 75.246 15041 7521
N 2374.23 106.248 74.5637 15042 7521
N 2691.44 97.76430000000001 95.5209 15043 7522
N 2690.48 98.0943 95.9828 15044 7522
N 2853.17 8.199759999999999 126.712 15045 7523
N 2852.47 8.581239999999999 127.493 15046 7523
N 3114.44 125.711 4.83601 15047 7524
N 3114.62 126.524 4.09317 15048 7524
N 2802.66 82.7144 103.174 15049 7525
N 2803.65 83.2449 103.268 15050 7525
N 2841.23 146.179 89.1584 15051 7526
N 2841.14 145.237 89.7598 15052 7526
N 2611.74 99.7098 135.297 15053 7527
N 2611.48 98.6884 135.66 15054 7527
N 3050.76 78.10290000000001 116.895 15055 7528
N 3050.14 77.2529 116.538 15056 7528
N 2863.98 120.508 34.7277 15057 7529
N 2863.35 120.177 33.8622 15058 7529
N 2863.05 10.6348 142.437 15059 7530
N 2862.18 11.2147 142.073 15060 7530
N 2826.9 94.1889 52.6628 15061 7531
N 2826.47 93.773 51.7171 15062 7531
N 2692.6 88.4739 90.3193 15063 7532
N 2692.83 87.61450000000001 89.6418 15064 7532
N 2835.67 46.7346 30.981 15065 7533
N 2835.25 45.6961 30.9196 15066 7533
N 3009.69 120.995 92.2501 15067 7534
N 3008.63 121.28 92.07250000000001 15068 7534
N 2811.76 105.476 88.6324 15069 7535
N 2811.59 105.423 87.5094 15070 7535
N 2982.44 149.434 3.15152 15071 7536
N 2982.78 149.557 2.09658 15072 7536
N 2906.67 14.2437 103.79 15073 7537
N 2907.34 15.0856 104.066 15074 7537
N 2947.32 122.836 23.107 15075 7538
N 2946.24 122.642 23.3472 15076 7538
N 3177.37 48.1239 114.894 15077 7539
N 3178.19 47.5691 114.372 15078 7539
N 3085.66 73.36799999999999 104.791 15079 7540
N 3085.7 74.4717 104.987 15080 7540
N 2853.45 139.793 64.93259999999999 15081 7541
N 2854.05 139.155 64.2534 15082 7541
N 3189.46 43.2411 137.722 15083 7542
N 3188.63 43.478 138.45 15084 7542
N 2832.1 56.6568 7.61341 15085 7543
N 2832.32 57.4453 6.85233 15086 7543
N 2543.79 62.5332 58.7399 15087 7544
N 2543.22 61.8497 58.0559 15088 7544
N 3013.2 96.389 71.051 15089 7545
N 3012.97 97.3588 71.5547 15090 7545
N 2536.52 106.287 55.0567 15091 7546
N 2535.42 106.094 55.0443 15092 7546
N 2875.21 67.6494 64.06440000000001 15093 7547
N 2874.27 67.07599999999999 63.8709 15094 7547
N 2919.74 139.833 1.68533 15095 7548
N 2918.72 139.506 1.35059 15096 7548
N 2985.54 137.189 145.653 15097 7549
N 2984.85 136.512 145.086 15098 7549
N 2806.98 17.2087 142.379 15099 7550
N 2806.65 16.2133 141.997 15100 7550
N 2855.23 78.53749999999999 147.851 15101 7551
N 2855.1 79.0868 146.887 15102 7551
N 2677.18 101.496 118.417 15103 7552
N 2677.55 102.551 118.564 15104 7552
N 2676.38 148.634 91.3137 15105 7553
N 2677.29 149.132 90.88339999999999 15106 7553
N 2773.09 53.4751 7.27674 15107 7554
N 2772.14 53.2319 7.83195 15108 7554
N 3207.37 136.099 73.7097 15109 7555
N 3207.31 135.343 72.8886 15110 7555
N 2693.78 146.234 131.945 15111 7556
N 2693.17 145.744 132.76 15112 7556
N 2895.65 124.063 121.235 15113 7557
N 2895.36 124.659 122.124 15114 7557
N 2733.47 59.8751 108.303 15115 7558
N 2733.39 59.7245 107.198 15116 7558
N 3053.71 78.336 143.45 15117 7559
N 3053.73 77.479 144.167 15118 7559
N 2776.71 32.8149 50.7775 15119 7560
N 2776.96 33.354 49.8338 15120 7560
N 2688.06 5.76462 80.0121 15121 7561
N 2687.25 6.17544 80.67529999999999 15122 7561
N 2752.12 11.0805 41.5178 15123 7562
N 2753.13 10.6003 41.5637 15124 7562
N 2655.46 144.778 46.1012 15125 7563
N 2655.79 144.462 45.082 15126 7563
N 2898.94 134.851 19.8415 15127 7564
N 2899.19 135.368 20.7985 15128 7564
N 2783.37 127.083 36.6544 15129 7565
N 2783.62 127.144 35.5593 15130 7565
N 2469.84 22.087 97.5241 15131 7566
N 2470.53 21.9523 96.6553 15132 7566
N 3087.94 8.470230000000001 133.885 15133 7567
N 3088.75 8.471679999999999 133.108 15134 7567
N 2769.55 126.883 1.27548 15135 7568
N 2770.46 127.525 1.36608 15136 7568
N 2878.37 38.9966 97.74939999999999 15137 7569
N 2878.59 37.9279 97.9862 15138 7569
N 2929.5 12.4717 109.471 15139 7570
N 2929.56 12.6724 110.57 15140 7570
N 2636.43 75.6011 35.5135 15141 7571
N 2635.94 75.74120000000001 36.5091 15142 7571
N 2858.37 122.824 56.4064 15143 7572
N 2857.96 122.269 57.2952 15144 7572
N 2967.45 115.818 121.481 15145 7573
N 2968.38 116.433 121.43 15146 7573
N 2835.72 149.092 137.864 15147 7574
N 2835.89 0.186219 138.091 15148 7574
N 2588.42 16.4352 9.2767 15149 7575
N 2587.87 16.2603 8.31235 15150 7575
N 2773.23 142.497 100.832 15151 7576
N 2773.74 142.323 99.8527 15152 7576
N 2922.33 89.20059999999999 91.82299999999999 15153 7577
N 2921.97 89.083 90.7774 15154 7577
N 2743.2 9.52474 111.808 15155 7578
N 2742.55 10.2166 111.231 15156 7578
N 3048.55 31.0099 136.943 15157 7579
N 3048.42 31.8969 137.623 15158 7579
N 2542.94 41.4787 135.667 15159 7580
N 2543.19 41.9678 134.685 15160 7580
N 2856.3 18.7745 77.8927 15161 7581
N 2856.89 17.8826 77.5561 15162 7581
N 2791.6 85.6776 10.3706 15163 7582
N 2792.51 86.30159999999999 10.5458 15164 7582
N 3217.65 123.207 5.07756 15165 7583
N 3216.86 122.624 5.58422 15166 7583
N 2764.53 56.1701 124.221 15167 7584
N 2764.49 56.6457 125.235 15168 7584
N 2629.91 14.1535 84.1242 15169 7585
N 2629.79 13.4904 85.0082 15170 7585
N 2580.13 76.9228 59.7464 15171 7586
N 2580.04 75.9389 60.2332 15172 7586
N 2346.88 109.778 38.7024 15173 7587
N 2346.02 109.945 38.0054 15174 7587
N 2889.79 144.307 95.94580000000001 15175 7588
N 2889.26 144.709 96.8436 15176 7588
N 2657.22 10.3389 23.2237 15177 7589
N 2656.1 10.312 23.3353 15178 7589
N 2237.08 144.455 106.41 15179 7590
N 2238.19 144.609 106.457 15180 7590
N 3067.82 28.1901 121.29 15181 7591
N 3067.86 27.1029 121.521 15182 7591
N 3131.26 30.4025 53.2808 15183 7592
N 3131.69 29.3903 53.0919 15184 7592
N 3059.38 109.098 19.9571 15185 7593
N 3058.54 109.533 19.3577 15186 7593
N 2454.83 112.244 30.2628 15187 7594
N 2455.61 111.823 30.9446 15188 7594
N 2857.7 75.68470000000001 147.163 15189 7595
N 2858.67 76.1743 146.887 15190 7595
N 2777.23 15.5871 0.907921 15191 7596
N 2777.45 15.6475 1.99747 15192 7596
N 2873.2 25.8382 113.943 15193 7597
N 2873.32 25.7341 112.834 15194 7597
N 2848.75 75.5051 149.964 15195 7598
N 2848.37 75.8364 148.966 15196 7598
N 2861.44 76.6326 142.834 15197 7599
N 2861.4 75.8873 143.667 15198 7599
N 2865.04 146.596 126.792 15199 7600
N 2864.65 145.627 127.191 15200 7600
N 2926.07 14.3227 32.9104 15201 7601
N 2925.1 13.9364 33.3148 15202 7601
N 2784.78 37.8385 120.112 15203 7602
N 2784.84 37.824 118.999 15204 7602
N 3227.25 56.5285 95.8554 15205 7603
N 3227.68 55.9978 94.9646 15206 7603
N 2789.71 130.005 97.2286 15207 7604
N 2790.65 130.277 97.7471 15208 7604
N 3182.38 142.747 92.1765 15209 7605
N 3183.12 142.3 91.4759 15210 7605
N 2513.32 138.378 114.277 15211 7606
N 2513.78 137.482 113.818 15212 7606
N 2707.63 56.0605 87.557 15213 7607
N 2708.25 56.9283 87.89790000000001 15214 7607
N 2617.22 89.6416 113.251 15215 7608
N 2616.4 90.404 113.32 15216 7608
N 2819.65 96.16679999999999 21.5487 15217 7609
N 2820.58 96.17659999999999 22.1813 15218 7609
N 2712.68 1.62862 96.0427 15219 7610
N 2713.69 1.18062 95.7795 15220 7610
N 2569.88 139.641 74.77889999999999 15221 7611
N 2569.99 140.048 73.727 15222 7611
N 2494.48 92.5157 71.37949999999999 15223 7612
N 2493.57 92.46550000000001 70.7148 15224 7612
N 2794.35 2.50243 20.0587 15225 7613
N 2794.7 3.28833 20.7666 15226 7613
N 2692.16 92.0455 70.6541 15227 7614
N 2691.32 91.4298 71.0258 15228 7614
N 2856.79 69.0535 121.232 15229 7615
N 2857.34 68.4233 121.986 15230 7615
N 2755.66 16.903 48.079 15231 7616
N 2755.54 17.5854 47.1917 15232 7616
N 2881.94 14.2821 44.3764 15233 7617
N 2882.68 14.0686 45.1959 15234 7617
N 2958.09 58.9903 6.15875 15235 7618
N 2957.39 59.2209 7.01021 15236 7618
N 2544.5 48.3071 83.31319999999999 15237 7619
N 2544.83 49.3084 83.66540000000001 15238 7619
N 3081.37 6.90702 26.3051 15239 7620
N 3081.44 7.88725 26.8454 15240 7620
N 2550.27 41.8362 47.0168 15241 7621
N 2550.59 40.8232 47.3577 15242 7621
N 2945.92 65.56140000000001 91.63379999999999 15243 7622
N 2945.95 66.059 92.64100000000001 15244 7622
N 2560.69 10.7922 79.5997 15245 7623
N 2561.54 10.1144 79.3339 15246 7623
N 2845.83 124.807 107.498 15247 7624
N 2846.75 125.426 107.623 15248 7624
N 3140.11 116.74 23.4792 15249 7625
N 3139.54 116.557 22.5319 15250 7625
N 2575.87 87.5532 90.9332 15251 7626
N 2575.35 88.3836 91.4384 15252 7626
N 2947.76 100.15 30.2253 15253 7627
N 2946.76 99.7908 30.5579 15254 7627
N 3120.88 79.65389999999999 46.1887 15255 7628
N 3120.38 80.3685 46.8835 15256 7628
N 2562.93 39.3913 78.2851 15257 7629
N 2563.72 40.1823 78.2914 15258 7629
N 2990.41 72.1644 147.618 15259 7630
N 2991.22 72.5438 146.947 15260 7630
N 2932.78 105.215 7.0139 15261 7631
N 2932.6 106.098 7.69753 15262 7631
N 2588.79 148.436 54.5597 15263 7632
N 2588.29 148.972 55.4056 15264 7632
N 3155 19.0609 89.4096 15265 7633
N 3154.19 18.295 89.31 15266 7633
N 2671.14 91.4246 35.2024 15267 7634
N 2670.16 91.03360000000001 34.8487 15268 7634
N 2917.73 108.875 138.322 15269 7635
N 2917.35 109.105 137.296 15270 7635
N 2939.68 122.525 118.554 15271 7636
N 2939.4 122.153 119.574 15272 7636
N 3010.98 36.1887 24.3919 15273 7637
N 3010.24 37.0351 24.3002 15274 7637
N 3219.99 20.2781 139.203 15275 7638
N 3220.59 19.3355 139.186 15276 7638
N 2969.32 110.648 77.9438 15277 7639
N 2968.4 111.254 77.73999999999999 15278 7639
N 3147.2 43.3535 41.2422 15279 7640
N 3148.17 43.1305 40.7564 15280 7640
N 2420.27 85.5132 17.122 15281 7641
N 2421.1 85.0686 16.5061 15282 7641
N 2599.18 108.874 21.241 15283 7642
N 2598.63 108.716 22.2015 15284 7642
N 3044.62 97.61069999999999 91.6255 15285 7643
N 3043.81 98.3857 91.49379999999999 15286 7643
N 2408.13 86.995 15.0116 15287 7644
N 2408.01 86.15300000000001 15.7424 15288 7644
N 2644.53 123.198 20.4184 15289 7645
N 2643.58 123.582 19.9927 15290 7645
N 3181.28 135.331 103.47 15291 7646
N 3181.17 135.037 104.533 15292 7646
N 3210.49 140.26 132.999 15293 7647
N 3210.2 139.193 132.85 15294 7647
N 2533 105.291 30.0161 15295 7648
N 2533.53 105.774 30.8857 15296 7648
N 2976.53 17.1596 112.363 15297 7649
N 2977.37 17.1877 111.624 15298 7649
N 2699.08 82.976 85.1919 15299 7650
N 2699.81 83.2765 84.3997 15300 7650
N 2824.06 65.6324 102.257 15301 7651
N 2824.63 65.59999999999999 101.295 15302 7651
N 2692.99 115.283 64.46380000000001 15303 7652
N 2693.56 115.201 65.4229 15304 7652
N 2627.34 19.9434 50.7368 15305 7653
N 2627.18 20.1008 49.6469 15306 7653
N 2902.44 63.822 17.4708 15307 7654
N 2903.51 63.7888 17.77 15308 7654
N 2993.96 21.183 1.17735 15309 7655
N 2993.66 20.1404 0.909101 15310 7655
N 2981.71 28.5797 106.196 15311 7656
N 2982.66 29.1229 106.435 15312 7656
N 3059.64 135.208 115.266 15313 7657
N 3059.2 136.215 115.042 15314 7657
N 2555.36 12.4836 72.9308 15315 7658
N 2555.39 12.8985 71.89109999999999 15316 7658
N 2434.91 92.46469999999999 64.19540000000001 15317 7659
N 2435.21 91.66540000000001 64.904 15318 7659
N 2691.78 7.22382 145.389 15319 7660
N 2691.31 7.97136 144.712 15320 7660
N 2440.97 142.295 66.96559999999999 15321 7661
N 2441.08 143.267 67.5408 15322 7661
N 2714.95 25.0906 47.6173 15323 7662
N 2715.56 24.3577 47.0315 15324 7662
N 3151.7 50.3213 98.09 15325 7663
N 3152.63 49.8702 97.6464 15326 7663
N 2992.79 146.928 91.9422 15327 7664
N 2992.15 147.844 91.92149999999999 15328 7664
N 2750.06 9.45867 12.6449 15329 7665
N 2749.53 8.57133 13.0559 15330 7665
N 2809.64 49.7444 9.09531 15331 7666
N 2810.34 48.898 9.31432 15332 7666
N 3194.52 89.8642 31.1264 15333 7667
N 3194.7 88.7975 30.8611 15334 7667
N 2837.81 31.8518 20.0312 15335 7668
N 2837.38 32.3779 20.9059 15336 7668
N 2813.92 34.9221 92.5761 15337 7669
N 2812.81 34.8964 92.3827 15338 7669
N 2571.57 43.1738 49.5598 15339 7670
N 2570.64 42.6165 49.3034 15340 7670
N 2321.81 44.9917 35.5928 15341 7671
N 2322.78 45.4435 35.268 15342 7671
N 3007.22 10.5032 12.4493 15343 7672
N 3006.63 11.2685 13.0092 15344 7672
N 2805.12 135.608 31.2378 15345 7673
N 2804.7 135.408 30.2155 15346 7673
N 2444.71 47.9981 8.89514 15347 7674
N 2443.85 47.2974 9.08553 15348 7674
N 3087.09 38.3695 14.9743 15349 7675
N 3087.63 38.428 13.9877 15350 7675
N 2676.61 95.9573 13.3584 15351 7676
N 2676.69 97.063 13.5492 15352 7676
N 3041.54 129.319 67.9646 15353 7677
N 3042.19 128.581 67.4341 15354 7677
N 2947.97 73.3754 94.78440000000001 15355 7678
N 2948.68 74.0612 95.30889999999999 15356 7678
N 2734.22 85.9798 67.1863 15357 7679
N 2733.15 86.27719999999999 67.2418 15358 7679
N 2480.98 18.3657 73.5551 15359 7680
N 2480.88 17.3318 73.9683 15360 7680
N 2971.25 5.3904 62.275 15361 7681
N 2971.61 6.4406 62.3196 15362 7681
N 2664.39 76.1786 60.2618 15363 7682
N 2665.36 76.4538 59.7735 15364 7682
N 3028.34 111.165 118.602 15365 7683
N 3028.61 110.326 119.289 15366 7683
N 2854.07 9.7196 107.104 15367 7684
N 2854.15 10.0855 108.16 15368 7684
N 3137.94 126.673 128.457 15369 7685
N 3137.41 127.2 129.293 15370 7685
N 2715.93 72.9131 35.64 15371 7686
N 2715.18 72.25579999999999 36.1417 15372 7686
N 3014.51 147.44 61.3034 15373 7687
N 3014.6 146.463 60.7714 15374 7687
N 2840.4 99.14060000000001 9.21349 15375 7688
N 2841.37 99.602 8.933859999999999 15376 7688
N 2632.68 55.5319 35.1868 15377 7689
N 2633.02 55.442 34.1286 15378 7689
N 2961.76 102.837 52.1182 15379 7690
N 2961.4 102.044 52.8179 15380 7690
N 3108.77 16.5181 105.001 15381 7691
N 3108.05 16.8016 105.799 15382 7691
N 2369.38 41.135 0.407883 15383 7692
N 2369.63 40.5546 1.3311 15384 7692
N 2778.04 65.22239999999999 56.509 15385 7693
N 2777.54 64.5945 57.2794 15386 7693
N 2716.39 84.176 73.33410000000001 15387 7694
N 2715.98 85.20959999999999 73.2581 15388 7694
N 3211.3 126.217 119.757 15389 7695
N 3210.67 125.698 118.994 15390 7695
N 2748.7 36.8001 122.385 15391 7696
N 2748.73 37.8901 122.085 15392 7696
N 3201.51 114.541 0.6251409999999999 15393 7697
N 3202.26 113.711 0.7291069999999999 15394 7697
N 2995.99 110.099 92.657 15395 7698
N 2996.01 110.435 91.59 15396 7698
N 2716.59 135.377 149.636 15397 7699
N 2717.22 135.282 148.703 15398 7699
N 2851.75 83.7123 83.1003 15399 7700
N 2852.45 83.756 83.97539999999999 15400 7700
N 3049.45 21.4114 63.6942 15401 7701
N 3048.84 21.585 62.7707 15402 7701
N 2936.22 116.053 87.8141 15403 7702
N 2935.19 116.48 87.9049 15404 7702
N 2875.33 142.553 32.9728 15405 7703
N 2875.36 141.673 33.6712 15406 7703
N 3028.82 45.254 84.72320000000001 15407 7704
N 3029.76 45.8675 84.7714 15408 7704
N 3092.34 89.9064 23.5684 15409 7705
N 3091.25 89.7051 23.4035 15410 7705
N 2850.87 50.4433 134.629 15411 7706
N 2850.1 49.8343 135.172 15412 7706
N 2735.25 103.581 33.5688 15413 7707
N 2734.8 103.366 34.5846 15414 7707
N 2540.75 132.222 107.359 15415 7708
N 2541.87 132.327 107.471 15416 7708
N 2393.33 31.1815 84.8249 15417 7709
N 2393.42 32.2186 84.4097 15418 7709
N 2391.88 88.489 107.071 15419 7710
N 2392.67 88.557 106.281 15420 7710
N 2452.46 26.8774 22.8411 15421 7711
N 2452.67 25.8277 23.1536 15422 7711
N 2457.15 83.6374 142.479 15423 7712
N 2457.59 84.6597 142.588 15424 7712
N 2878.39 30.2129 97.9456 15425 7713
N 2877.27 30.2426 98.0381 15426 7713
N 2597.11 69.6784 76.2347 15427 7714
N 2597.66 70.65649999999999 76.21250000000001 15428 7714
N 2752.56 98.6352 48.2241 15429 7715
N 2752.37 97.7791 48.9492 15430 7715
N 3228.63 137.937 67.39870000000001 15431 7716
N 3228.97 138.304 68.3946 15432 7716
N 2565.82 31.0866 137.587 15433 7717
N 2564.92 30.4306 137.738 15434 7717
N 2975.16 77.1892 79.4233 15435 7718
N 2976.08 76.7677 79.90089999999999 15436 7718
N 2532.51 69.44929999999999 18.7646 15437 7719
N 2532.93 70.30459999999999 19.3481 15438 7719
N 3217.61 48.4463 53.7353 15439 7720
N 3216.95 47.6068 54.0839 15440 7720
N 2689.92 109.87 10.1903 15441 7721
N 2690.32 110.916 10.1961 15442 7721
N 3089.36 101.693 30.8943 15443 7722
N 3088.8 102.365 30.1895 15444 7722
N 2722.93 14.8775 73.70010000000001 15445 7723
N 2722.39 15.5955 74.3511 15446 7723
N 3186.31 82.0523 54.6184 15447 7724
N 3186.69 81.85250000000001 53.5845 15448 7724
N 2864.98 106.759 143.584 15449 7725
N 2864.7 107.045 144.622 15450 7725
N 2544.08 70.69840000000001 106.475 15451 7726
N 2543.17 70.6837 107.12 15452 7726
N 2529.18 61.8032 0.0390189 15453 7727
N 2529.32 62.9041 0.138101 15454 7727
N 2507.58 8.04415 79.3556 15455 7728
N 2507.29 8.76549 78.5547 15456 7728
N 2608.75 82.0672 1.52096 15457 7729
N 2607.7 82.2659 1.88381 15458 7729
N 2167.98 49.8429 86.2937 15459 7730
N 2167.23 49.0819 85.9556 15460 7730
N 2930.63 86.49290000000001 18.5174 15461 7731
N 2929.9 87.34610000000001 18.4782 15462 7731
N 3051.73 103.973 114.153 15463 7732
N 3052.76 103.633 114.341 15464 7732
N 2482.19 143.366 42.0867 15465 7733
N 2481.73 144.258 42.5985 15466 7733
N 2961.95 2.34584 81.0505 15467 7734
N 2963.07 2.30326 81.1246 15468 7734
N 2147.18 9.58126 58.1301 15469 7735
N 2146.66 10.292 58.8226 15470 7735
N 2870.77 59.9086 129.653 15471 7736
N 2870.11 60.7881 129.474 15472 7736
N 2721.4 5.40207 43.9272 15473 7737
N 2720.68 4.83107 43.2942 15474 7737
N 2920.19 51.9752 77.84350000000001 15475 7738
N 2919.74 52.3995 76.9121 15476 7738
N 2762.87 89.2533 77.6127 15477 7739
N 2763.38 89.6485 78.5262 15478 7739
N 2936.31 99.526 58.1514 15479 7740
N 2935.19 99.6891 58.0825 15480 7740
N 2863.37 89.92100000000001 137.643 15481 7741
N 2863.36 88.8163 137.456 15482 7741
N 2963.05 124.518 80.6138 15483 7742
N 2963.35 125.329 81.3066 15484 7742
N 3177.83 74.9885 84.13039999999999 15485 7743
N 3177.87 76.0959 84.31270000000001 15486 7743
N 2942.62 113.441 16.582 15487 7744
N 2942.16 112.515 17.0282 15488 7744
N 2771.29 47.4482 12.417 15489 7745
N 2771.11 46.9475 13.3907 15490 7745
N 2749.61 24.0953 69.28789999999999 15491 7746
N 2748.53 24.2054 69.5436 15492 7746
N 3044.54 106.134 55.4592 15493 7747
N 3045.41 105.63 55.9515 15494 7747
N 2988.03 140.875 0.908519 15495 7748
N 2988.65 141.256 0.0693264 15496 7748
N 2747.75 60.958 116.904 15497 7749
N 2746.85 61.3161 116.34 15498 7749
N 2755.94 36.926 10.8194 15499 7750
N 2755.56 36.472 11.7667 15500 7750
N 2744.06 111.478 65.0594 15501 7751
N 2744.11 110.863 65.9969 15502 7751
N 2473.08 123.579 112.426 15503 7752
N 2473.6 122.606 112.621 15504 7752
N 2272.51 18.611 83.8417 15505 7753
N 2273.1 17.7448 84.24469999999999 15506 7753
N 2796.72 90.3028 81.4944 15507 7754
N 2797.74 90.5925 81.11920000000001 15508 7754
N 2840.45 88.17270000000001 146.66 15509 7755
N 2841.13 88.02070000000001 145.79 15510 7755
N 3125.8 109.138 29.5108 15511 7756
N 3126.33 108.954 28.5375 15512 7756
N 3150.33 11.6631 17.3007 15513 7757
N 3150.41 12.44 16.4971 15514 7757
N 3140.93 24.768 88.8242 15515 7758
N 3141.5 24.0072 89.4145 15516 7758
N 2794.89 105.075 93.8899 15517 7759
N 2794.75 104.265 94.64749999999999 15518 7759
N 3188.45 130.35 141.829 15519 7760
N 3187.54 130.617 142.428 15520 7760
N 3012.52 124.287 18.5014 15521 7761
N 3011.45 124.557 18.6656 15522 7761
N 2708.86 136.765 4.58897 15523 7762
N 2709.1 136.343 5.58945 15524 7762
N 2854.93 39.8256 82.3599 15525 7763
N 2855.87 39.7335 81.7556 15526 7763
N 2889.05 8.44158 14.1511 15527 7764
N 2890.07 8.87879 13.9947 15528 7764
N 2835.11 83.7189 1.38403 15529 7765
N 2835.25 82.6358 1.6263 15530 7765
N 2073.11 73.60509999999999 111.286 15531 7766
N 2072.81 72.5338 111.155 15532 7766
N 2798.16 112.946 64.3381 15533 7767
N 2797.45 112.219 63.8894 15534 7767
N 3000.07 61.964 76.2483 15535 7768
N 2999.19 62.4331 75.7533 15536 7768
N 3135.79 108.678 51.2097 15537 7769
N 3134.71 108.471 51.1733 15538 7769
N 2875.32 31.5352 131.229 15539 7770
N 2875.34 31.4697 132.345 15540 7770
N 3165.87 19.1591 110.768 15541 7771
N 3165.81 19.2525 109.666 15542 7771
N 2851.93 7.30061 44.6309 15543 7772
N 2852.44 7.73974 45.5312 15544 7772
N 2600.58 93.94499999999999 126.608 15545 7773
N 2600.12 93.3977 125.749 15546 7773
N 2518 135.12 64.67489999999999 15547 7774
N 2518.92 134.627 64.2884 15548 7774
N 3187.86 138.469 134.518 15549 7775
N 3186.92 138.467 135.102 15550 7775
N 2967.54 34.7518 33.2268 15551 7776
N 2967.46 35.8528 33.2245 15552 7776
N 2665.17 142.498 31.4162 15553 7777
N 2664.9 141.983 32.3716 15554 7777
N 2946.89 61.2631 98.4832 15555 7778
N 2946.48 60.5941 99.2816 15556 7778
N 2869.9 34.8649 56.2806 15557 7779
N 2870.76 35.2911 55.6949 15558 7779
N 2842.36 8.717739999999999 55.9835 15559 7780
N 2843.35 9.21773 56.0997 15560 7780
N 2834.34 32.8786 148.222 15561 7781
N 2834.03 31.8119 148.355 15562 7781
N 2137.73 81.1614 6.95337 15563 7782
N 2137.23 80.319 7.48541 15564 7782
N 2924.61 74.5436 11.0362 15565 7783
N 2925.48 74.6673 10.3369 15566 7783
N 2376.88 40.3944 41.916 15567 7784
N 2377.39 41.1881 41.297 15568 7784
N 2610.7 27.9695 112.264 15569 7785
N 2610.28 27.0429 112.729 15570 7785
N 3035.63 76.871 40.6587 15571 7786
N 3034.88 77.6545 40.4158 15572 7786
N 3066.44 109.779 79.9029 15573 7787
N 3067.39 110.035 80.42619999999999 15574 7787
N 2753.06 149.618 79.21939999999999 15575 7788
N 2753.85 0.400609 79.25839999999999 15576 7788
N 3167.4 82.57259999999999 56.6503 15577 7789
N 3168.39 82.07259999999999 56.5438 15578 7789
N 3081.4 109.554 120.461 15579 7790
N 3080.56 109.169 119.836 15580 7790
N 2879.69 25.7373 68.8524 15581 7791
N 2878.74 26.2427 69.2145 15582 7791
N 3009.04 140.865 104.575 15583 7792
N 3009.94 140.485 104.037 15584 7792
N 2198.11 80.1431 119.92 15585 7793
N 2197.85 80.39790000000001 120.982 15586 7793
N 2578.27 122.252 3.43528 15587 7794
N 2578.42 122.271 4.54644 15588 7794
N 2531.18 125.142 135.761 15589 7795
N 2531.81 125.86 135.198 15590 7795
N 2500.98 145.566 35.7776 15591 7796
N 2502.01 145.755 35.3601 15592 7796
N 2278.12 1.87117 29.8437 15593 7797
N 2277.58 2.13031 30.791 15594 7797
N 2669.31 5.94632 98.6456 15595 7798
N 2670.16 5.22302 98.73820000000001 15596 7798
N 2394.54 132.15 80.3984 15597 7799
N 2394.57 132.043 81.508 15598 7799
N 3039.1 141.2 136.671 15599 7800
N 3038.61 140.551 137.447 15600 7800
N 2811.6 71.66540000000001 14.6608 15601 7801
N 2812.71 71.59569999999999 14.8519 15602 7801
N 2517.98 145.177 104.579 15603 7802
N 2517.77 144.211 105.098 15604 7802
N 2981.24 126.08 37.408 15605 7803
N 2980.82 127.056 37.0395 15606 7803
N 2853.97 12.2558 30.1309 15607 7804
N 2854.28 13.2016 29.6074 15608 7804
N 3120.75 23.5309 18.3115 15609 7805
N 3119.95 23.174 17.6098 15610 7805
N 2652.11 25.3635 129.395 15611 7806
N 2651.81 24.4228 128.849 15612 7806
N 2639.69 131.034 63.8406 15613 7807
N 2639.83 131.111 62.7201 15614 7807
N 2904.94 85.6726 24.0961 15615 7808
N 2904.31 85.5355 24.9955 15616 7808
N 2810.16 75.3827 19 15617 7809
N 2811.01 75.8664 18.4624 15618 7809
N 2623.69 33.0807 109.087 15619 7810
N 2624.06 32.0461 108.843 15620 7810
N 3099.58 39.5887 108.373 15621 7811
N 3100.09 40.5582 108.128 15622 7811
N 2734.44 104.725 72.1932 15623 7812
N 2733.49 105.295 72.2687 15624 7812
N 2758.56 104.705 138.352 15625 7813
N 2758.86 104.603 137.278 15626 7813
N 2600.61 47.0782 50.6066 15627 7814
N 2600.13 46.51 51.4304 15628 7814
N 2952.47 45.1252 60.3546 15629 7815
N 2953.5 45.5335 60.5132 15630 7815
N 2702.39 15.1855 108.684 15631 7816
N 2702.2 14.6417 109.642 15632 7816
N 2966.88 24.3051 31.0168 15633 7817
N 2965.88 24.3637 31.5077 15634 7817
N 2601.42 35.7233 79.93640000000001 15635 7818
N 2601.77 35.5877 78.884 15636 7818
N 2754.45 88.7312 94.26009999999999 15637 7819
N 2754.63 88.6296 93.1544 15638 7819
N 3019.78 4.67173 90.4383 15639 7820
N 3019.46 4.03808 89.5776 15640 7820
N 2489.82 48.1566 148.387 15641 7821
N 2489.93 47.5418 149.312 15642 7821
N 2824.92 67.5823 59.7706 15643 7822
N 2825.57 66.6709 59.7102 15644 7822
N 3236.31 56.9831 108.005 15645 7823
N 3235.63 56.3126 108.583 15646 7823
N 2957.8 63.7302 144.977 15647 7824
N 2958.76 63.2795 144.612 15648 7824
N 2695.57 6.08567 23.4224 15649 7825
N 2695.99 5.24771 24.0197 15650 7825
N 2519.03 70.21550000000001 79.96680000000001 15651 7826
N 2519.18 69.3573 79.2666 15652 7826
N 2620.4 147.622 84.50530000000001 15653 7827
N 2619.78 147.809 83.59610000000001 15654 7827
N 2740.48 112.524 82.6168 15655 7828
N 2740.25 111.633 81.9898 15656 7828
N 3028.04 116.916 106.865 15657 7829
N 3028.57 117.481 106.06 15658 7829
N 2746.47 116.957 80.9194 15659 7830
N 2745.89 116.02 80.9121 15660 7830
N 3052.88 16.5465 54.9453 15661 7831
N 3052.58 17.539 55.295 15662 7831
N 2773.39 133.769 89.1443 15663 7832
N 2774.26 133.528 89.8182 15664 7832
N 2730.85 125.011 28.4455 15665 7833
N 2730.73 123.906 28.5818 15666 7833
N 2600.22 128.622 144.207 15667 7834
N 2600.09 129.116 145.199 15668 7834
N 2907.64 18.3915 110.926 15669 7835
N 2908.25 18.6265 110.004 15670 7835
N 2623.27 64.7787 89.87269999999999 15671 7836
N 2623.16 64.48569999999999 90.94280000000001 15672 7836
N 2819.12 89.8747 132.878 15673 7837
N 2819.08 90.48690000000001 133.822 15674 7837
N 2577.36 145.68 59.5308 15675 7838
N 2577.54 146.205 58.5622 15676 7838
N 2852.93 73.5048 84.25620000000001 15677 7839
N 2852.27 73.28919999999999 85.12139999999999 15678 7839
N 2726.74 123.221 124.238 15679 7840
N 2726.49 123.847 123.337 15680 7840
N 3096.8 60.5256 98.7803 15681 7841
N 3096.45 61.3173 98.0771 15682 7841
N 3049.85 133.451 26.2219 15683 7842
N 3048.76 133.635 26.1256 15684 7842
N 3048.66 43.5615 113.383 15685 7843
N 3048.13 44.4885 113.71 15686 7843
N 2974.75 123.952 133.127 15687 7844
N 2973.69 123.611 133.075 15688 7844
N 3211.53 140.898 74.06010000000001 15689 7845
N 3211.54 141.955 74.4187 15690 7845
N 3082.88 35.6199 6.90374 15691 7846
N 3082.85 36.0012 7.95537 15692 7846
N 3229.2 9.505610000000001 127.738 15693 7847
N 3230.02 9.84117 127.045 15694 7847
N 3003.46 59.1753 98.9486 15695 7848
N 3003.73 58.4564 98.1326 15696 7848
N 2732.43 11.7271 82.8261 15697 7849
N 2731.39 11.6597 82.4216 15698 7849
N 2875.43 102.61 50.4515 15699 7850
N 2876.39 102.558 51.0184 15700 7850
N 3038.61 123.966 101.666 15701 7851
N 3038.7 123.184 100.873 15702 7851
N 2681.41 103.617 120.714 15703 7852
N 2681.46 104.613 121.205 15704 7852
N 2870.59 130.118 49.7708 15705 7853
N 2871.1 129.734 50.6833 15706 7853
N 2799.36 51.1066 17.7574 15707 7854
N 2798.74 50.6288 18.5647 15708 7854
N 2722.85 60.3199 28.5879 15709 7855
N 2722.35 61.3219 28.6878 15710 7855
N 3021.88 4.46051 85.976 15711 7856
N 3021.06 3.70367 85.95699999999999 15712 7856
N 3063.07 47.4834 90.5946 15713 7857
N 3063.74 47.098 91.3986 15714 7857
N 2918.73 72.01309999999999 46.253 15715 7858
N 2918.55 72.0878 47.3532 15716 7858
N 3050.47 117.221 133.459 15717 7859
N 3051.36 117.223 134.136 15718 7859
N 2492.44 1.88982 126.287 15719 7860
N 2492.32 2.41046 125.313 15720 7860
N 2874.4 41.6627 93.28919999999999 15721 7861
N 2874.85 40.6473 93.28489999999999 15722 7861
N 3225.94 26.457 91.1653 15723 7862
N 3226.87 26.074 91.6544 15724 7862
N 3049.03 36.6836 135.875 15725 7863
N 3049.65 37.3691 135.246 15726 7863
N 2207.18 82.7555 68.6814 15727 7864
N 2206.2 82.66249999999999 68.1891 15728 7864
N 2538.86 137.106 102.628 15729 7865
N 2538.98 136.031 102.361 15730 7865
N 2844.56 2.17341 45.0157 15731 7866
N 2843.95 3.10288 44.8882 15732 7866
N 2773.31 145.383 95.8044 15733 7867
N 2773.92 144.428 95.7945 15734 7867
N 2989.46 149.549 127.475 15735 7868
N 2989.73 0.414802 128.137 15736 7868
N 2753.24 74.8399 123.587 15737 7869
N 2752.96 74.604 122.535 15738 7869
N 3103.26 46.0235 106.851 15739 7870
N 3103.22 47.126 107.045 15740 7870
N 2354.63 9.194599999999999 19.0137 15741 7871
N 2353.98 8.300739999999999 18.8956 15742 7871
N 2901.44 33.1877 99.43810000000001 15743 7872
N 2901.1 33.9521 100.178 15744 7872
N 2866.27 92.8822 15.9498 15745 7873
N 2866.73 93.3287 16.8696 15746 7873
N 2699.26 138.783 91.6361 15747 7874
N 2698.9 139.351 90.7403 15748 7874
N 3093.24 53.763 117.654 15749 7875
N 3093.04 53.1286 118.549 15750 7875
N 2962.94 40.7025 39.8698 15751 7876
N 2962.77 41.6274 39.2689 15752 7876
N 2970.21 108.379 119.215 15753 7877
N 2969.78 108.385 120.253 15754 7877
N 2781.47 70.87130000000001 38.2478 15755 7878
N 2781.99 69.898 38.0929 15756 7878
N 2725.88 132.41 147.678 15757 7879
N 2725.73 133.379 147.161 15758 7879
N 3025.18 23.7764 109.72 15759 7880
N 3025.47 24.1295 108.712 15760 7880
N 3188.81 121.838 9.24625 15761 7881
N 3189.33 121.46 8.32563 15762 7881
N 2860.3 72.785 129.608 15763 7882
N 2859.79 72.4485 128.654 15764 7882
N 2400.09 107.585 135.133 15765 7883
N 2400.68 108.216 135.845 15766 7883
N 2457.35 60.3906 143.5 15767 7884
N 2457.56 61.1574 144.287 15768 7884
N 2631.15 103.588 71.21080000000001 15769 7885
N 2630.62 103.224 70.29179999999999 15770 7885
N 2863.04 53.4596 72.9263 15771 7886
N 2862.18 54.0027 72.4652 15772 7886
N 2442.36 88.2323 12.8312 15773 7887
N 2443.31 87.6438 12.7877 15774 7887
N 2690.16 39.7246 1.73632 15775 7888
N 2691.23 39.9193 1.4783 15776 7888
N 2851.27 77.2897 4.30282 15777 7889
N 2851.4 78.395 4.17387 15778 7889
N 2794.19 32.3179 118.097 15779 7890
N 2793.21 32.1416 118.61 15780 7890
N 2804.99 149.818 19.3839 15781 7891
N 2805.26 0.615682 18.6434 15782 7891
N 2568.56 74.2473 146.971 15783 7892
N 2567.67 74.2901 147.639 15784 7892
N 2686.72 49.056 37.5147 15785 7893
N 2686.24 48.0547 37.3496 15786 7893
N 2548.91 135.65 103.782 15787 7894
N 2549.35 135.908 104.778 15788 7894
N 2417.79 5.84929 68.1002 15789 7895
N 2418.65 5.92906 68.8192 15790 7895
N 2959.85 105.347 98.37479999999999 15791 7896
N 2959.14 106.188 98.1662 15792 7896
N 2370.98 11.9384 25.0887 15793 7897
N 2372.05 11.8597 24.7578 15794 7897
N 3099.7 119.97 94.1961 15795 7898
N 3099.68 118.945 93.79989999999999 15796 7898
N 3048.25 79.5714 103.85 15797 7899
N 3048.84 79.4966 102.906 15798 7899
N 2190.81 96.2931 137.242 15799 7900
N 2189.92 95.6444 137.351 15800 7900
N 2860 45.1455 76.51730000000001 15801 7901
N 2859.24 45.6485 75.8711 15802 7901
N 2719.67 125.574 79.9586 15803 7902
N 2720.09 126.605 80.0103 15804 7902
N 2814.91 62.1144 56.8417 15805 7903
N 2814.88 61.9208 57.9503 15806 7903
N 3056.27 68.0117 147.568 15807 7904
N 3055.87 67.0008 147.826 15808 7904
N 2918.66 137.662 94.074 15809 7905
N 2917.63 137.368 94.4014 15810 7905
N 3033.8 2.86678 129.196 15811 7906
N 3033.83 2.18564 130.083 15812 7906
N 2753.64 46.5057 29.5469 15813 7907
N 2754.28 46.4912 28.6358 15814 7907
N 2586.42 81.0609 124.375 15815 7908
N 2585.9 80.94889999999999 123.393 15816 7908
N 3067.54 99.55759999999999 33.2806 15817 7909
N 3068.04 98.9796 32.4616 15818 7909
N 2582.33 104.095 72.11799999999999 15819 7910
N 2581.54 103.305 72.089 15820 7910
N 2940.68 62.6499 56.671 15821 7911
N 2939.99 61.7845 56.8421 15822 7911
N 2638.22 69.8588 97.0634 15823 7912
N 2637.14 69.8087 96.7885 15824 7912
N 2767.38 15.2938 37.7764 15825 7913
N 2767.35 15.4837 38.8863 15826 7913
N 2738.56 43.9889 143.106 15827 7914
N 2739.02 43.6235 142.147 15828 7914
N 3208.6 91.7058 101.502 15829 7915
N 3207.98 92.3408 100.818 15830 7915
N 2732.48 140.849 45.6466 15831 7916
N 2733.57 140.582 45.6132 15832 7916
N 2721.66 117.811 101.578 15833 7917
N 2721.6 118.069 100.486 15834 7917
N 1959.77 136.695 98.7197 15835 7918
N 1959.92 135.822 98.0341 15836 7918
N 2944.18 61.0989 70.9806 15837 7919
N 2944.14 61.5374 69.9571 15838 7919
N 2772.77 129.149 147.6 15839 7920
N 2773.53 128.365 147.886 15840 7920
N 3036.08 94.6033 42.1231 15841 7921
N 3035.88 93.8069 42.8894 15842 7921
N 3023.59 135.534 24.6439 15843 7922
N 3024.34 134.754 24.9392 15844 7922
N 2914.16 89.47150000000001 114.166 15845 7923
N 2913.65 89.7869 115.111 15846 7923
N 2687.69 106.436 38.5982 15847 7924
N 2688.35 106.363 39.4978 15848 7924
N 3063.27 43.4165 37.2886 15849 7925
N 3064.16 42.7564 37.1114 15850 7925
N 2861.73 27.8071 118.366 15851 7926
N 2862.26 28.275 117.496 15852 7926
N 3236.61 29.1044 138.072 15853 7927
N 3236.7 28.1354 138.626 15854 7927
N 2981.17 141.89 19.3872 15855 7928
N 2981.11 142.505 18.4561 15856 7928
N 2930.19 131.971 112.871 15857 7929
N 2930.88 131.115 113.103 15858 7929
N 2936.42 106.881 28.3973 15859 7930
N 2935.46 106.364 28.1164 15860 7930
N 2993.59 143.516 67.0728 15861 7931
N 2992.8 143.511 67.8463 15862 7931
N 2616.93 45.0099 20.302 15863 7932
N 2616.75 45.8696 21.0097 15864 7932
N 3108.46 133.442 26.766 15865 7933
N 3108.57 134.437 26.2994 15866 7933
N 2927.15 79.0791 86.96850000000001 15867 7934
N 2926.2 79.5466 86.59269999999999 15868 7934
N 2962.5 42.2625 87.00409999999999 15869 7935
N 2961.46 42.6729 87.0583 15870 7935
N 3207.71 61.3124 31.1635 15871 7936
N 3208.68 60.761 31.3188 15872 7936
N 2738.83 8.970219999999999 16.1434 15873 7937
N 2738.11 9.83 16.1601 15874 7937
N 3148.64 74.2582 116.81 15875 7938
N 3149.3 73.7205 117.517 15876 7938
N 3168.86 33.2992 4.27992 15877 7939
N 3168.89 32.8506 3.25722 15878 7939
N 3002.64 3.07338 81.15219999999999 15879 7940
N 3003.71 2.90178 81.4539 15880 7940
N 3097.26 1.56787 45.6745 15881 7941
N 3096.97 2.51006 45.1376 15882 7941
N 3011.48 63.8737 0.112743 15883 7942
N 3010.88 62.9697 149.85 15884 7942
N 2949.21 76.63249999999999 125.353 15885 7943
N 2948.87 77.5646 125.874 15886 7943
N 2853.62 126.964 91.13979999999999 15887 7944
N 2853.76 125.875 90.99379999999999 15888 7944
N 3074.83 84.31870000000001 48.3305 15889 7945
N 3074.44 85.3347 48.0821 15890 7945
N 3089.38 55.3169 44.0813 15891 7946
N 3089.94 55.8735 43.3052 15892 7946
N 3140.93 89.54640000000001 116.968 15893 7947
N 3140.44 88.9188 116.197 15894 7947
N 3113.7 86.6931 51.2397 15895 7948
N 3113.1 85.8668 51.7078 15896 7948
N 2692.62 48.1708 99.6951 15897 7949
N 2692.46 49.0306 100.407 15898 7949
N 2722.03 37.8281 17.041 15899 7950
N 2721.9 37.3303 16.0434 15900 7950
N 3120.89 74.5172 64.79259999999999 15901 7951
N 3121.3 74.08459999999999 63.844 15902 7951
N 2980.52 148.518 129.222 15903 7952
N 2979.65 148.141 128.619 15904 7952
N 2631.87 146.658 138.451 15905 7953
N 2631.55 146.944 139.488 15906 7953
N 2994.08 31.9523 4.35523 15907 7954
N 2993.81 32.8189 5.00364 15908 7954
N 2947.16 49.6504 0.372338 15909 7955
N 2946.93 48.9321 1.19202 15910 7955
N 2796.45 93.295 137.281 15911 7956
N 2796.89 92.7402 138.151 15912 7956
N 2908.9 20.1067 104.197 15913 7957
N 2908.03 19.4736 104.525 15914 7957
N 2848.68 7.96749 15.9922 15915 7958
N 2849.07 8.95105 15.6526 15916 7958
N 3029.99 55.9713 72.7569 15917 7959
N 3029.09 55.8078 72.10590000000001 15918 7959
N 3227.92 23.5511 76.60980000000001 15919 7960
N 3228.09 23.065 75.6219 15920 7960
N 3145.99 19.3067 135.003 15921 7961
N 3144.87 19.4026 134.933 15922 7961
N 3072.49 124.213 53.0781 15923 7962
N 3073.52 124.588 53.2917 15924 7962
N 3222.37 4.0608 19.4549 15925 7963
N 3222 2.99924 19.5455 15926 7963
N 2777.97 52.0418 145.336 15927 7964
N 2777.83 52.4603 146.377 15928 7964
N 2966.85 142.492 106.809 15929 7965
N 2965.81 142.801 106.538 15930 7965
N 2750.86 62.4889 136.507 15931 7966
N 2750.86 61.4523 136.929 15932 7966
N 3038.19 23.1252 49.0491 15933 7967
N 3037.18 23.0496 49.4931 15934 7967
N 2772.62 113.614 141.852 15935 7968
N 2771.62 113.166 141.652 15936 7968
N 2935.7 83.06950000000001 60.5609 15937 7969
N 2935.08 82.1999 60.2419 15938 7969
N 3214.11 8.352069999999999 64.67610000000001 15939 7970
N 3213.51 7.91341 65.5077 15940 7970
N 3146.97 80.00620000000001 82.4674 15941 7971
N 3147.46 80.5531 81.6172 15942 7971
N 3016.46 68.9876 129.035 15943 7972
N 3016.57 68.31100000000001 129.922 15944 7972
N 2998.27 141.207 53.7923 15945 7973
N 2998.62 142.141 54.3005 15946 7973
N 2916.3 85.01090000000001 56.3192 15947 7974
N 2917.15 85.43989999999999 55.7329 15948 7974
N 2889.46 103.45 120.503 15949 7975
N 2889.8 102.925 119.568 15950 7975
N 3107.96 115.01 132.736 15951 7976
N 3107 115.577 132.892 15952 7976
N 2737.45 18.3912 34.2478 15953 7977
N 2737.58 17.2799 34.2815 15954 7977
N 3100.45 52.5154 5.50942 15955 7978
N 3099.71 51.7016 5.47741 15956 7978
N 2884.54 144.843 0.152048 15957 7979
N 2885.09 144.889 1.10615 15958 7979
N 2956.14 132.976 121.247 15959 7980
N 2956.24 133.365 122.282 15960 7980
N 2920.53 57.4936 137.95 15961 7981
N 2921.42 57.2111 138.571 15962 7981
N 3011.72 29.3241 92.73950000000001 15963 7982
N 3011.03 29.6004 93.57559999999999 15964 7982
N 3178.27 128.299 110.137 15965 7983
N 3178.5 128.56 109.079 15966 7983
N 2986.52 99.3706 19.4587 15967 7984
N 2985.96 99.81619999999999 18.6147 15968 7984
N 3125.44 33.1786 145.539 15969 7985
N 3126.53 32.9862 145.432 15970 7985
N 3017.4 47.4675 88.60550000000001 15971 7986
N 3017.46 48.4761 88.1223 15972 7986
N 2770.2 140.495 35.062 15973 7987
N 2770.46 141.131 34.195 15974 7987
N 3179.31 99.43819999999999 69.85599999999999 15975 7988
N 3178.3 99.67789999999999 70.2497 15976 7988
N 2617.1 42.8975 39.9355 15977 7989
N 2618.18 42.5938 39.8913 15978 7989
N 3195.57 148.995 72.4603 15979 7990
N 3196.63 149.319 72.33669999999999 15980 7990
N 3036.57 86.6763 41.5744 15981 7991
N 3035.88 87.0677 42.3667 15982 7991
N 3078.53 7.31731 90.0732 15983 7992
N 3078.51 7.75751 89.047 15984 7992
N 3108.86 42.3579 98.38760000000001 15985 7993
N 3108.69 41.6807 97.5256 15986 7993
N 3039.92 61.3977 20.8558 15987 7994
N 3040.02 61.1336 21.9403 15988 7994
N 2830.07 85.0258 4.333 15989 7995
N 2829.33 84.4481 4.92568 15990 7995
N 2871.76 53.0859 84.8506 15991 7996
N 2871.16 53.5659 85.6461 15992 7996
N 3179.96 80.74930000000001 137.445 15993 7997
N 3179.12 81.46980000000001 137.28 15994 7997
N 3054.59 69.96259999999999 9.86786 15995 7998
N 3055.06 69.00279999999999 9.565910000000001 15996 7998
N 2758.86 60.0078 148.834 15997 7999
N 2758.14 59.2521 149.217 15998 7999
N 3188.16 22.2564 98.21169999999999 15999 8000
N 3189.05 22.5359 98.81910000000001 16000 8000
N 3002.04 73.5223 79.7495 16001 8001
N 3001.33 72.7253 80.0735 16002 8001
N 2880.98 24.1069 30.2745 16003 8002
N 2881.66 23.3239 30.6991 16004 8002
N 2988.42 126.003 56.0705 16005 8003
N 2988.63 124.907 56.1281 16006 8003
N 3232.85 70.0911 91.3372 16007 8004
N 3231.91 69.62009999999999 90.9659 16008 8004
N 3076.37 148.642 87.70399999999999 16009 8005
N 3077.25 148.016 88.0176 16010 8005
N 2740.27 3.47517 44.1207 16011 8006
N 2741.05 2.71064 43.8869 16012 8006
N 2872.57 8.673500000000001 76.26949999999999 16013 8007
N 2872.02 8.649319999999999 75.2962 16014 8007
N 2807.38 78.1794 119.974 16015 8008
N 2806.8 78.5857 119.107 16016 8008
N 2995.5 137.489 35.539 16017 8009
N 2994.53 136.976 35.2835 16018 8009
N 3158.71 21.894 58.7164 16019 8010
N 3159.73 21.4495 58.5684 16020 8010
N 2683.84 113.152 137.948 16021 8011
N 2684.51 113.899 137.441 16022 8011
N 2939.49 133.231 2.82413 16023 8012
N 2939.45 134.28 3.24147 16024 8012
N 2869.08 18.8272 96.637 16025 8013
N 2870.11 19.1843 96.8874 16026 8013
N 2981.64 87.0171 61.4281 16027 8014
N 2981.69 87.5475 62.4136 16028 8014
N 2945.35 146.608 25.4644 16029 8015
N 2946.05 146.069 24.7599 16030 8015
N 2560.51 14.3477 96.98869999999999 16031 8016
N 2561.47 14.1266 97.5224 16032 8016
N 2987.24 12.736 14.5381 16033 8017
N 2986.53 12.3161 15.2869 16034 8017
N 2927.75 93.4028 124.942 16035 8018
N 2928.83 93.39100000000001 124.636 16036 8018
N 3006.27 55.5185 74.9662 16037 8019
N 3005.3 55.4713 74.4089 16038 8019
N 3167.79 141.239 25.215 16039 8020
N 3168.13 141.186 26.2857 16040 8020
N 3099.28 64.8888 116.67 16041 8021
N 3098.48 65.0214 115.899 16042 8021
N 3176.33 125.478 2.83459 16043 8022
N 3175.95 125.13 1.84178 16044 8022
N 3060.39 16.9187 111.586 16045 8023
N 3059.9 15.9775 111.944 16046 8023
N 2870.88 33.0422 99.49809999999999 16047 8024
N 2869.98 32.4001 99.29389999999999 16048 8024
N 2928.8 94.2572 133.066 16049 8025
N 2929.89 94.0026 132.938 16050 8025
N 3134.43 125.329 101.978 16051 8026
N 3134.68 125.61 100.927 16052 8026
N 2594.99 0.847035 6.50048 16053 8027
N 2594.06 1.44235 6.72085 16054 8027
N 3186.52 37.5357 77.502 16055 8028
N 3186.45 37.4609 78.619 16056 8028
N 2961.46 85.2321 37.0832 16057 8029
N 2962.34 84.765 37.587 16058 8029
N 2676.54 63.8941 9.98681 16059 8030
N 2675.59 63.4779 10.4267 16060 8030
N 3188.65 128.323 6.28974 16061 8031
N 3189.64 128.746 6.02365 16062 8031
N 2874.81 7.5563 62.4956 16063 8032
N 2873.83 8.07971 62.5436 16064 8032
N 2995.17 98.37730000000001 124.4 16065 8033
N 2996.05 97.7787 124.767 16066 8033
N 3084.22 45.5284 33.0275 16067 8034
N 3083.83 46.2946 33.7362 16068 8034
N 3099.81 34.0474 133.084 16069 8035
N 3099.01 34.804 133.154 16070 8035
N 2941.15 114.824 97.3022 16071 8036
N 2942.14 115.333 97.2189 16072 8036
N 3105.69 133.357 128.321 16073 8037
N 3105.58 133.73 129.384 16074 8037
N 3219.06 81.78879999999999 38.3058 16075 8038
N 3219.11 81.4452 39.3602 16076 8038
N 3055.36 117.335 11.4825 16077 8039
N 3055.37 116.552 12.2849 16078 8039
N 3169.93 36.9552 4.66862 16079 8040
N 3169.17 36.7631 5.46425 16080 8040
N 2872.73 119.072 70.4036 16081 8041
N 2872.98 118.209 69.7353 16082 8041
N 3130.77 36.1628 66.61969999999999 16083 8042
N 3129.69 35.8681 66.5489 16084 8042
N 2634.48 4.85787 139.03 16085 8043
N 2633.45 4.74726 138.529 16086 8043
N 3155.44 114.611 7.91256 16087 8044
N 3154.64 114.612 7.13437 16088 8044
N 2798.15 9.137090000000001 119.786 16089 8045
N 2797.16 8.60557 119.899 16090 8045
N 3165.81 44.3632 80.24120000000001 16091 8046
N 3165.44 43.4646 80.7693 16092 8046
N 2898.52 136.445 130.867 16093 8047
N 2899.4 136.046 130.29 16094 8047
N 3059.47 141.319 17.7537 16095 8048
N 3059.69 142.245 17.1553 16096 8048
N 2873.37 36.3501 93.7182 16097 8049
N 2874.21 35.8302 93.19029999999999 16098 8049
N 3213.32 27.2186 78.6126 16099 8050
N 3213.81 27.9389 77.91240000000001 16100 8050
N 3180.92 143.387 149.634 16101 8051
N 3181.95 143.706 149.986 16102 8051
N 3116.48 56.2331 51.5143 16103 8052
N 3115.77 56.197 52.3695 16104 8052
N 2828.03 121.161 119.192 16105 8053
N 2827.64 121.834 119.991 16106 8053
N 3123.69 119.591 5.20358 16107 8054
N 3123.21 120.135 4.35277 16108 8054
N 2869.88 64.1264 85.32380000000001 16109 8055
N 2869.16 63.3422 85.67100000000001 16110 8055
N 2606.71 36.255 110.416 16111 8056
N 2606.83 36.6615 109.379 16112 8056
N 2692.51 106.415 110.362 16113 8057
N 2692.63 105.363 110.015 16114 8057
N 2733.99 115.804 131.721 16115 8058
N 2733.58 115.545 130.713 16116 8058
N 2911.76 143.208 110.486 16117 8059
N 2911.85 142.093 110.513 16118 8059
N 2779.62 132.062 89.78360000000001 16119 8060
N 2778.87 131.788 89.00230000000001 16120 8060
N 2772.91 148.048 136.551 16121 8061
N 2773.05 149.158 136.55 16122 8061
N 2753.46 66.6919 70.7402 16123 8062
N 2753.44 66.5778 69.6285 16124 8062
N 2888.79 64.8181 16.1522 16125 8063
N 2889.89 64.8813 16.4005 16126 8063
N 2763.38 21.8089 68.46429999999999 16127 8064
N 2763.67 22.8651 68.2337 16128 8064
N 2823.44 71.10429999999999 25.0255 16129 8065
N 2822.96 71.8691 25.6857 16130 8065
N 3040.76 94.5749 52.2791 16131 8066
N 3040.78 94.30759999999999 51.1959 16132 8066
N 3236.72 13.7119 75.7169 16133 8067
N 3237.18 14.7248 75.6614 16134 8067
N 2946.7 90.05419999999999 37.9052 16135 8068
N 2947.17 89.136 37.4712 16136 8068
N 2409.67 7.65597 143.886 16137 8069
N 2409.34 8.619440000000001 143.411 16138 8069
N 2513.56 139.543 26.0685 16139 8070
N 2514.33 139.67 25.2604 16140 8070
N 3035.72 23.7474 93.8415 16141 8071
N 3035.92 24.6539 94.4678 16142 8071
N 3102.45 137.973 119.198 16143 8072
N 3102.71 138.38 120.215 16144 8072
N 2838.35 60.8111 17.0438 16145 8073
N 2838.73 60.8439 16.0001 16146 8073
N 3105.24 41.0194 30.8946 16147 8074
N 3104.97 41.3689 29.8608 16148 8074
N 2808.59 19.0689 85.39060000000001 16149 8075
N 2808.51 18.807 84.30459999999999 16150 8075
N 3212.27 74.08110000000001 149.038 16151 8076
N 3211.38 74.7379 149.11 16152 8076
N 2790.97 144.169 9.028180000000001 16153 8077
N 2791.02 143.054 9.0661 16154 8077
N 3211.81 143.293 95.4422 16155 8078
N 3212.76 143.874 95.56829999999999 16156 8078
N 2931.12 141.071 73.01909999999999 16157 8079
N 2930.76 140.846 71.9836 16158 8079
N 2930.24 142.587 133.229 16159 8080
N 2929.79 142.562 134.256 16160 8080
N 3191.48 76.5591 70.4276 16161 8081
N 3191.32 77.5069 69.8693 16162 8081
N 2962.04 51.7194 80.80289999999999 16163 8082
N 2962.62 51.8073 79.8501 16164 8082
N 3010.99 3.56211 78.27379999999999 16165 8083
N 3010.61 2.55174 77.9811 16166 8083
N 3168.63 116.966 74.50579999999999 16167 8084
N 3168.33 117.024 75.5817 16168 8084
N 3198.53 137.402 135.031 16169 8085
N 3198.81 137.977 135.924 16170 8085
N 2981.89 144.639 41.8037 16171 8086
N 2982.3 143.834 41.1502 16172 8086
N 3122.93 97.854 131.026 16173 8087
N 3123.18 98.2971 130.03 16174 8087
N 2693.44 134.97 118.276 16175 8088
N 2692.51 135.556 118.447 16176 8088
N 2996.34 13.2823 65.5311 16177 8089
N 2995.37 12.7334 65.5765 16178 8089
N 2961.66 81.6917 119.189 16179 8090
N 2962.3 82.5501 119.536 16180 8090
N 2960.49 34.8351 96.5566 16181 8091
N 2960.06 35.8168 96.1801 16182 8091
N 3179.8 106.405 83.0217 16183 8092
N 3178.7 106.33 83.23739999999999 16184 8092
N 3132.06 32.3987 91.59099999999999 16185 8093
N 3132.35 31.6192 90.83329999999999 16186 8093
N 3029.68 115.745 18.6944 16187 8094
N 3028.65 115.396 18.4016 16188 8094
N 2899.94 29.5856 126.404 16189 8095
N 2900.21 28.8973 127.227 16190 8095
N 2949.19 94.2756 86.03789999999999 16191 8096
N 2948.46 94.6109 85.2508 16192 8096
N 3018.84 60.2805 32.0833 16193 8097
N 3019.85 60.5065 31.6835 16194 8097
N 2421.11 132.998 57.9444 16195 8098
N 2420.66 133.739 58.6532 16196 8098
N 2767.63 134.576 136.201 16197 8099
N 2767.8 135.14 135.231 16198 8099
N 2684.09 148.19 103.909 16199 8100
N 2684.25 147.881 102.846 16200 8100
N 2761.02 90.31229999999999 11.8533 16201 8101
N 2760.06 90.9075 11.7265 16202 8101
N 3152.98 103.659 69.71939999999999 16203 8102
N 3153.85 104.125 70.2543 16204 8102
N 3135.7 70.2149 82.24460000000001 16205 8103
N 3134.73 69.9485 82.74639999999999 16206 8103
N 2470.65 79.5021 28.6078 16207 8104
N 2470.15 78.6619 28.0539 16208 8104
N 2772.42 55.1886 46.8947 16209 8105
N 2773.31 54.7233 46.4009 16210 8105
N 3019.97 93.8103 107.21 16211 8106
N 3020.12 94.7573 106.639 16212 8106
N 2790.11 141.498 136.272 16213 8107
N 2789.45 140.597 136.357 16214 8107
N 2739.04 73.43129999999999 125.611 16215 8108
N 2739.59 73.1189 126.539 16216 8108
N 3100.1 137.428 125.32 16217 8109
N 3100.39 136.885 124.394 16218 8109
N 3228.41 126.809 51.0163 16219 8110
N 3227.69 126.1 51.4376 16220 8110
N 3179.86 128.483 115.044 16221 8111
N 3179.06 128.474 115.822 16222 8111
N 2974.25 70.1422 33.4541 16223 8112
N 2974.35 71.1533 32.9779 16224 8112
N 2853.08 23.1516 29.1467 16225 8113
N 2854.09 23.3556 28.6967 16226 8113
N 2768.65 125.339 71.7972 16227 8114
N 2769.16 124.95 70.8807 16228 8114
N 2859.47 84.1048 146.111 16229 8115
N 2859.47 82.9919 146.227 16230 8115
N 2807.31 128.037 136.932 16231 8116
N 2807.04 127.658 135.91 16232 8116
N 3155.66 123.097 75.3815 16233 8117
N 3155.98 123.025 76.44759999999999 16234 8117
N 2844.5 135.914 138.434 16235 8118
N 2844.53 135.853 137.315 16236 8118
N 3234.38 149.517 142.928 16237 8119
N 3233.51 149.239 142.306 16238 8119
N 3198.35 104.47 78.1977 16239 8120
N 3197.58 104.748 77.4333 16240 8120
N 2953.82 77.2433 133.397 16241 8121
N 2953.21 77.8518 134.109 16242 8121
N 3029.8 65.3254 113.859 16243 8122
N 3030.49 64.59520000000001 113.377 16244 8122
N 3167.76 20.4188 92.3955 16245 8123
N 3168.6 19.9857 91.7814 16246 8123
N 3128.95 12.3289 1.05569 16247 8124
N 3128.34 11.7041 0.35535 16248 8124
N 2878.79 136.308 7.60098 16249 8125
N 2879.66 136.566 8.25475 16250 8125
N 2784.3 141.167 86.0504 16251 8126
N 2784.41 142.277 86.0073 16252 8126
N 2947.23 70.9611 116.732 16253 8127
N 2947.61 71.7466 117.426 16254 8127
N 2957.35 70.9414 88.22320000000001 16255 8128
N 2958.14 71.7266 88.2059 16256 8128
N 2921.25 32.3603 134.478 16257 8129
N 2921 33.3403 134.012 16258 8129
N 3033.84 95.8886 39.3301 16259 8130
N 3034.48 95.006 39.1141 16260 8130
N 3181.53 142.847 45.6083 16261 8131
N 3181.94 142.603 46.6458 16262 8131
N 3199.48 47.3184 39.9279 16263 8132
N 3198.62 46.6201 40.1279 16264 8132
N 3044.31 59.7608 59.8525 16265 8133
N 3043.61 58.9706 59.4737 16266 8133
N 3008.91 13.981 37.8358 16267 8134
N 3008.43 14.0957 36.8211 16268 8134
N 2933.15 96.5753 132.993 16269 8135
N 2932.82 95.97499999999999 132.114 16270 8135
N 2987.44 75.61660000000001 123.395 16271 8136
N 2986.81 76.1763 124.129 16272 8136
N 2639.44 146.186 54.0807 16273 8137
N 2639.36 146.896 53.2246 16274 8137
N 3209.96 108.425 139.315 16275 8138
N 3210.33 109.347 139.846 16276 8138
N 2809.86 139.562 16.002 16277 8139
N 2809.91 140.243 16.8823 16278 8139
N 2934.57 119.617 66.63630000000001 16279 8140
N 2934.49 119.158 65.61969999999999 16280 8140
N 3239.44 69.41849999999999 102.024 16281 8141
N 3239.56 69.3946 100.912 16282 8141
N 3146.77 147.07 76.7132 16283 8142
N 3147.14 146.558 77.62350000000001 16284 8142
N 2955.42 82.197 77.7433 16285 8143
N 2956.15 82.99630000000001 78.0514 16286 8143
N 2793.66 147.906 53.3409 16287 8144
N 2794.18 148.827 53.7035 16288 8144
N 2747.02 56.5675 3.54746 16289 8145
N 2747.38 56.7706 2.50145 16290 8145
N 3233.98 148.531 68.8026 16291 8146
N 3233.12 147.847 68.9689 16292 8146
N 2327.9 94.6606 66.17659999999999 16293 8147
N 2326.83 94.49160000000001 66.4511 16294 8147
N 2826.1 26.5464 64.28019999999999 16295 8148
N 2826.49 25.5524 64.6229 16296 8148
N 3198.1 0.0388487 89.07129999999999 16297 8149
N 3197.48 0.863524 89.4592 16298 8149
N 2988.53 79.0325 130.237 16299 8150
N 2987.78 78.2303 130.018 16300 8150
N 3064.44 102.658 40.3575 16301 8151
N 3065.05 101.772 40.093 16302 8151
N 3173.94 76.2976 35.472 16303 8152
N 3173.73 75.4611 36.1638 16304 8152
N 2925.44 94.6694 27.7272 16305 8153
N 2925.12 93.5943 27.6171 16306 8153
N 2927.36 137.538 105.119 16307 8154
N 2926.91 137.32 106.119 16308 8154
N 3138.69 54.4417 112.356 16309 8155
N 3137.93 55.2272 112.611 16310 8155
N 2834.42 102.184 46.8315 16311 8156
N 2834.35 103.265 47.0395 16312 8156
N 2908.42 22.7449 110.465 16313 8157
N 2907.43 22.7726 110.988 16314 8157
N 3114.41 64.515 17.0796 16315 8158
N 3113.4 64.0659 17.0713 16316 8158
N 3164.99 107.555 53.7951 16317 8159
N 3164.83 106.436 53.7431 16318 8159
N 2678.87 24.0468 73.40179999999999 16319 8160
N 2678.32 24.7974 72.7833 16320 8160
N 2901.38 82.43049999999999 146.093 16321 8161
N 2902.08 83.07299999999999 145.501 16322 8161
N 2964.02 3.36496 125.007 16323 8162
N 2964.64 2.4511 124.961 16324 8162
N 2611.9 37.6426 146.364 16325 8163
N 2611.29 38.2011 145.592 16326 8163
N 3200.05 73.1955 70.9282 16327 8164
N 3200.04 73.5136 69.8391 16328 8164
N 2679.31 12.0751 54.2407 16329 8165
N 2679.74 12.1234 53.2114 16330 8165
N 3209.15 56.6538 75.30370000000001 16331 8166
N 3209.33 55.5927 75.62090000000001 16332 8166
N 2816.42 141.169 7.73465 16333 8167
N 2817.29 141.852 7.55619 16334 8167
N 2627.5 141.752 20.1907 16335 8168
N 2628.45 141.328 19.7649 16336 8168
N 3058.86 74.4183 41.5899 16337 8169
N 3058.73 75.5042 41.334 16338 8169
N 3089.45 130.046 127.59 16339 8170
N 3089.6 129.113 127.007 16340 8170
N 3160.77 52.3041 15.1023 16341 8171
N 3160.77 51.5207 14.3156 16342 8171
N 2849.35 57.4316 143.187 16343 8172
N 2849.84 58.4363 143.119 16344 8172
N 3143.05 85.376 85.8605 16345 8173
N 3142.87 85.5258 84.7637 16346 8173
N 3175.42 65.60339999999999 128.119 16347 8174
N 3175.36 64.70910000000001 128.792 16348 8174
N 2963.11 61.4619 85.7016 16349 8175
N 2962.34 60.6854 85.5094 16350 8175
N 3104.58 90.5373 28.2181 16351 8176
N 3105.64 90.2813 27.9691 16352 8176
N 2904.2 15.2262 145.429 16353 8177
N 2904.85 14.9383 146.28 16354 8177
N 2912.16 20.0265 110.693 16355 8178
N 2913.06 20.1833 111.337 16356 8178
N 3109.09 137.321 120.637 16357 8179
N 3110.09 137.823 120.607 16358 8179
N 2990.24 50.5494 63.0883 16359 8180
N 2991.17 49.9644 62.8784 16360 8180
N 2480.99 78.5107 54.6615 16361 8181
N 2480.37 78.45780000000001 55.5867 16362 8181
N 2908.21 81.9898 1.48576 16363 8182
N 2909.15 82.3245 1.9747 16364 8182
N 3001.37 80.7908 94.27079999999999 16365 8183
N 3001.68 80.753 95.3484 16366 8183
N 2632.01 136.992 72.1195 16367 8184
N 2632.05 135.877 72.21299999999999 16368 8184
N 2906.93 74.4134 14.207 16369 8185
N 2907.4 75.0664 13.4366 16370 8185
N 2854.7 138.553 70.68640000000001 16371 8186
N 2854.96 138.846 69.63890000000001 16372 8186
N 2878.43 89.57170000000001 130.115 16373 8187
N 2879.18 89.34869999999999 130.911 16374 8187
N 2980.64 143.626 102.806 16375 8188
N 2980.54 142.581 102.405 16376 8188
N 3034.13 47.4767 122.449 16377 8189
N 3035.05 48.0738 122.236 16378 8189
N 3123.42 98.0429 74.2372 16379 8190
N 3124.2 98.35639999999999 74.9879 16380 8190
N 3183.78 12.5942 16.5499 16381 8191
N 3184.12 11.845 17.3133 16382 8191
N 2844.63 29.0735 50.5583 16383 8192
N 2844.8 28.0104 50.2494 16384 8192
N 3037.07 101.095 14.1876 16385 8193
N 3037.59 100.804 15.1306 16386 8193
N 3124.66 76.059 36.9913 16387 8194
N 3124.52 74.9534 36.763 16388 8194
N 3014.16 30.9104 105.909 16389 8195
N 3014.53 29.8676 105.719 16390 8195
N 2857.58 93.033 59.0987 16391 8196
N 2856.94 93.4829 59.9003 16392 8196
N 3011.27 117.577 25.657 16393 8197
N 3010.7 117.965 26.5372 16394 8197
N 2929.71 42.3118 41.3782 16395 8198
N 2928.86 41.589 41.4337 16396 8198
N 3016.71 80.01909999999999 91.20359999999999 16397 8199
N 3016.34 80.8826 91.8064 16398 8199
N 2979.69 129.327 44.9339 16399 8200
N 2980.43 128.56 45.2416 16400 8200
N 3103.23 137.612 134.966 16401 8201
N 3102.68 136.795 134.438 16402 8201
N 2981.94 36.9613 102.028 16403 8202
N 2981.78 35.8667 101.837 16404 8202
N 2909.36 87.563 28.6873 16405 8203
N 2908.76 87.15130000000001 29.5327 16406 8203
N 3067.19 64.0701 17.2808 16407 8204
N 3067.11 62.9573 17.3701 16408 8204
N 3069.77 30.9968 81.57380000000001 16409 8205
N 3069.28 32.011 81.5531 16410 8205
N 3177.24 145.382 129.65 16411 8206
N 3177.77 146.283 129.287 16412 8206
N 2846.6 32.2978 114.804 16413 8207
N 2847.67 32.5045 114.588 16414 8207
N 2920.42 74.4594 112.299 16415 8208
N 2920.95 73.77070000000001 111.602 16416 8208
N 3184.5 124.753 1.50303 16417 8209
N 3183.96 125.238 2.35216 16418 8209
N 2852.28 145.902 41.9718 16419 8210
N 2852.57 146.967 41.7874 16420 8210
N 2838.49 105.221 15.6285 16421 8211
N 2838.04 105.943 14.9238 16422 8211
N 2579.68 94.2296 95.0641 16423 8212
N 2578.71 94.72620000000001 94.78619999999999 16424 8212
N 2632.68 141.893 38.0801 16425 8213
N 2632.15 140.917 37.9475 16426 8213
N 2619.18 26.806 52.2978 16427 8214
N 2620 27.0836 53.0075 16428 8214
N 3216.1 25.2782 21.596 16429 8215
N 3217.01 25.2461 20.9471 16430 8215
N 2956.99 135.055 136.066 16431 8216
N 2957.77 135.778 135.694 16432 8216
N 3182.31 67.6328 9.38372 16433 8217
N 3181.98 68.283 10.2526 16434 8217
N 3213.6 128.605 95.2115 16435 8218
N 3213.61 129.611 94.7337 16436 8218
N 2859.27 112.673 142.052 16437 8219
N 2860.2 113.171 142.424 16438 8219
N 3143.12 83.67359999999999 19.3652 16439 8220
N 3143.8 84.55549999999999 19.4211 16440 8220
N 2839.82 16.1942 3.30051 16441 8221
N 2839.77 16.0498 4.41208 16442 8221
N 3239.02 58.5424 148.995 16443 8222
N 3238.23 58.6294 148.203 16444 8222
N 3103.45 41.6966 62.822 16445 8223
N 3104.24 41.128 62.2668 16446 8223
N 2877.15 34.3279 99.4629 16447 8224
N 2876.26 35.0022 99.5124 16448 8224
N 2879.17 98.52419999999999 3.70748 16449 8225
N 2878.69 97.63039999999999 3.23171 16450 8225
N 3169.7 2.00537 46.9199 16451 8226
N 3170.16 2.89639 47.4102 16452 8226
N 2968.23 131.585 128.362 16453 8227
N 2968.39 131.86 129.435 16454 8227
N 3061.03 70.4409 84.6925 16455 8228
N 3061.63 69.7901 85.3738 16456 8228
N 3003.28 94.9901 83.00790000000001 16457 8229
N 3004.15 94.77630000000001 82.3561 16458 8229
N 3066.07 62.5376 98.65130000000001 16459 8230
N 3066.45 61.5799 99.08410000000001 16460 8230
N 3219.06 95.68980000000001 57.1064 16461 8231
N 3218.71 95.461 56.0647 16462 8231
N 2709.94 139.184 39.0323 16463 8232
N 2710.25 139.812 39.9062 16464 8232
N 3207.58 40.16 148.676 16465 8233
N 3207.18 39.9766 149.714 16466 8233
N 3054.6 14.3462 147.637 16467 8234
N 3055.44 13.7383 148.033 16468 8234
N 3054.71 41.2642 53.2618 16469 8235
N 3054.2 42.1327 53.7772 16470 8235
N 2866.65 140.981 133.685 16471 8236
N 2866.87 140.035 134.242 16472 8236
N 2758.94 51.5454 81.9289 16473 8237
N 2758.2 51.4841 82.7624 16474 8237
N 2979.05 120.619 65.9025 16475 8238
N 2979.28 121.241 64.99299999999999 16476 8238
N 2955.6 126.289 100.704 16477 8239
N 2955.15 126.289 99.6892 16478 8239
N 3160.03 57.7156 133.266 16479 8240
N 3159.01 57.7611 133.725 16480 8240
N 2779.39 135.123 23.6578 16481 8241
N 2779.85 134.112 23.5377 16482 8241
N 3224.11 30.258 65.35120000000001 16483 8242
N 3224.81 30.9211 65.9034 16484 8242
N 3002.09 48.3543 35.2539 16485 8243
N 3001.6 49.309 35.5622 16486 8243
N 2951.75 1.20463 103.296 16487 8244
N 2952.75 0.716156 103.368 16488 8244
N 3164.12 31.7097 123.411 16489 8245
N 3163.48 32.6122 123.491 16490 8245
N 3081.78 49.8083 63.3367 16491 8246
N 3080.93 50.5371 63.3927 16492 8246
N 2861.11 41.6236 99.4055 16493 8247
N 2862.16 42.0144 99.25709999999999 16494 8247
N 2910.01 78.3424 70.5254 16495 8248
N 2909.19 78.7761 71.1474 16496 8248
N 3104.01 135.564 124.901 16497 8249
N 3103.54 134.615 124.534 16498 8249
N 2848.38 100.124 95.29819999999999 16499 8250
N 2848.71 100.016 94.23650000000001 16500 8250
N 2402.63 119.616 50.9051 16501 8251
N 2402.86 118.591 51.2882 16502 8251
N 3002.63 41.1694 90.41840000000001 16503 8252
N 3002.33 41.0267 91.47750000000001 16504 8252
N 3201.06 83.04640000000001 48.9993 16505 8253
N 3201.05 84.01430000000001 49.5576 16506 8253
N 3219.74 2.78772 84.2756 16507 8254
N 3220.21 2.29301 83.38760000000001 16508 8254
N 3020.34 149.736 1.55986 16509 8255
N 3019.31 149.787 1.12667 16510 8255
N 2911.79 87.4615 74.8022 16511 8256
N 2911.2 87.9143 75.6435 16512 8256
N 3181.82 39.2713 40.7852 16513 8257
N 3181.26 38.5662 41.4459 16514 8257
N 3217.79 131.448 13.6201 16515 8258
N 3216.84 131.413 14.2133 16516 8258
N 3029.11 22.6373 104.843 16517 8259
N 3028.82 22.0833 103.915 16518 8259
N 3073.26 139.492 120.909 16519 8260
N 3073.82 139.075 120.034 16520 8260
N 2355.63 72.34269999999999 103.726 16521 8261
N 2355.35 71.3574 104.187 16522 8261
N 3207.54 145.338 10.2855 16523 8262
N 3208.06 146.183 10.8184 16524 8262
N 3077.91 57.1412 117.44 16525 8263
N 3077.16 57.9616 117.452 16526 8263
N 3222.07 111.66 139.088 16527 8264
N 3222.82 110.997 139.577 16528 8264
N 3011.32 147.991 88.261 16529 8265
N 3012 148.85 88.18429999999999 16530 8265
N 3118.87 55.842 79.7664 16531 8266
N 3119.48 56.7842 79.81870000000001 16532 8266
N 3085.13 103.63 24.2684 16533 8267
N 3084.65 103.942 23.3035 16534 8267
N 2978.77 10.6474 70.8395 16535 8268
N 2977.85 11.1447 70.4401 16536 8268
N 2785.07 8.556710000000001 120.486 16537 8269
N 2784.52 9.53552 120.518 16538 8269
N 2439.21 90.8154 11.5157 16539 8270
N 2439.24 90.7193 10.3988 16540 8270
N 2057.27 4.6083 32.576 16541 8271
N 2056.74 5.58506 32.4285 16542 8271
N 2761.96 34.382 117.854 16543 8272
N 2762.69 34.4701 117.016 16544 8272
N 2415.49 0.42142 35.1966 16545 8273
N 2416.36 0.0227813 34.6226 16546 8273
N 3000.82 25.4506 136.884 16547 8274
N 3001.86 25.5327 136.473 16548 8274
N 2725.93 131.314 139.647 16549 8275
N 2726.93 131.384 140.124 16550 8275
N 2967.66 133.225 133.023 16551 8276
N 2968.4 133.412 133.841 16552 8276
N 3238.55 68.9601 84.7726 16553 8277
N 3238.69 70.059 84.6134 16554 8277
N 2455.28 32.7015 46.7411 16555 8278
N 2455 33.0136 45.7008 16556 8278
N 2904.16 81.4175 6.50091 16557 8279
N 2903.29 80.81100000000001 6.17136 16558 8279
N 3161.73 31.4841 71.3536 16559 8280
N 3161.79 30.9651 72.3301 16560 8280
N 2956.02 42.5788 64.90770000000001 16561 8281
N 2956.76 41.7462 64.8719 16562 8281
N 2823.94 103.88 81.001 16563 8282
N 2823.36 103.141 81.57729999999999 16564 8282
N 2816.48 31.8935 130.675 16565 8283
N 2815.78 32.4497 131.331 16566 8283
N 2808.91 124.859 21.9286 16567 8284
N 2809.12 124.836 23.0225 16568 8284
N 3223.82 83.914 98.51609999999999 16569 8285
N 3224.45 84.7127 98.0587 16570 8285
N 2924.93 71.8944 40.4014 16571 8286
N 2924.77 71.905 41.514 16572 8286
N 3087.55 145.061 7.59806 16573 8287
N 3086.55 145.218 8.079230000000001 16574 8287
N 3125.91 59.7538 108.417 16575 8288
N 3125.66 59.1136 107.539 16576 8288
N 3207.76 92.3489 34.2638 16577 8289
N 3208.38 92.9054 34.9983 16578 8289
N 2393.2 127.604 132.441 16579 8290
N 2392.71 126.692 132.023 16580 8290
N 2963.89 119.983 107.099 16581 8291
N 2964.76 119.515 106.579 16582 8291
N 2558.67 124.442 20.6621 16583 8292
N 2559.68 124.131 21.0189 16584 8292
N 2686.9 118.74 140.988 16585 8293
N 2686.27 118.857 140.059 16586 8293
N 3130.3 25.458 37.859 16587 8294
N 3129.44 25.8286 38.4702 16588 8294
N 2725.93 128.754 111.296 16589 8295
N 2725.11 129.137 110.64 16590 8295
N 2866.42 113.833 75.152 16591 8296
N 2865.73 114.717 75.3133 16592 8296
N 3006.89 20.982 134.497 16593 8297
N 3007.92 21.3748 134.298 16594 8297
N 3096.78 2.96984 131.102 16595 8298
N 3096.02 2.3678 130.533 16596 8298
N 3099.59 109.735 75.86660000000001 16597 8299
N 3099.47 110.691 75.3305 16598 8299
N 2433.66 4.81811 23.0317 16599 8300
N 2434.69 4.39723 23.1611 16600 8300
N 2982.13 126.424 129.25 16601 8301
N 2982.75 126.205 128.345 16602 8301
N 3193.46 118.169 48.5354 16603 8302
N 3192.85 118.603 47.7139 16604 8302
N 2812.18 15.7214 49.5654 16605 8303
N 2811.34 14.9897 49.4377 16606 8303
N 3175.25 1.69351 137.922 16607 8304
N 3176.01 2.36196 138.407 16608 8304
N 2864.8 50.9141 95.78230000000001 16609 8305
N 2865.67 51.5752 95.5384 16610 8305
N 3010.41 22.2118 96.8254 16611 8306
N 3011.03 22.7684 97.57899999999999 16612 8306
N 2870.9 101.168 128.435 16613 8307
N 2870.93 100.825 129.497 16614 8307
N 2737.12 110.282 66.0767 16615 8308
N 2737.27 109.265 65.6262 16616 8308
N 3074.66 57.9706 22.3446 16617 8309
N 3074.31 57.2001 23.0856 16618 8309
N 2991.49 124.444 11.1613 16619 8310
N 2991.65 123.968 12.161 16620 8310
N 2937.61 71.0497 130.109 16621 8311
N 2938.03 71.8887 130.716 16622 8311
N 3213.4 98.90349999999999 18.8686 16623 8312
N 3212.75 98.4208 18.1044 16624 8312
N 3224.6 144.283 103.237 16625 8313
N 3224.36 144.401 104.327 16626 8313
N 3149.61 78.25539999999999 74.265 16627 8314
N 3150.51 78.512 73.63849999999999 16628 8314
N 3011.9 146.911 15.5815 16629 8315
N 3011.64 147.015 14.5096 16630 8315
N 2537.04 5.5492 111.529 16631 8316
N 2537.85 5.45648 112.301 16632 8316
N 3063.24 123.017 68.5104 16633 8317
N 3063.89 122.554 67.71210000000001 16634 8317
N 2981.2 68.6557 126.243 16635 8318
N 2980.3 68.3901 125.635 16636 8318
N 2986.58 79.8262 56.8442 16637 8319
N 2987.31 80.571 56.4545 16638 8319
N 3208.3 129.168 51.3393 16639 8320
N 3207.58 128.757 50.5866 16640 8320
N 3178.13 109.636 19.594 16641 8321
N 3177.36 109.48 18.786 16642 8321
N 3138.29 116.464 116.232 16643 8322
N 3138.64 115.487 115.799 16644 8322
N 3232.74 50.3418 111.735 16645 8323
N 3233.69 50.8891 111.573 16646 8323
N 3205.29 72.0977 49.2302 16647 8324
N 3206.25 72.4873 48.8422 16648 8324
N 3080.81 0.635722 85.7867 16649 8325
N 3080.34 149.79 85.22450000000001 16650 8325
N 2747.65 20.5257 89.3249 16651 8326
N 2746.75 20.6204 88.6584 16652 8326
N 2976.27 7.30221 31.0601 16653 8327
N 2977.09 7.92902 30.6309 16654 8327
N 2878.25 77.29040000000001 46.3947 16655 8328
N 2877.89 77.935 47.2231 16656 8328
N 3062.64 119.539 41.3722 16657 8329
N 3061.92 119.604 40.5133 16658 8329
N 2913.97 81.28 129.681 16659 8330
N 2914.25 80.321 129.169 16660 8330
N 3018.45 16.623 59.6212 16661 8331
N 3017.38 16.8694 59.8218 16662 8331
N 2989.99 108.666 124.215 16663 8332
N 2990.09 109.644 124.748 16664 8332
N 3145.64 51.5419 142.79 16665 8333
N 3145.15 50.5149 142.813 16666 8333
N 2928.2 37.7849 47.7526 16667 8334
N 2927.19 37.586 48.2032 16668 8334
N 2974.47 52.3369 85.2041 16669 8335
N 2975.37 52.4359 84.5741 16670 8335
N 2817.12 18.5592 149.961 16671 8336
N 2817.85 18.3433 0.779819 16672 8336
N 2851.08 134.637 32.6226 16673 8337
N 2850.75 133.714 33.1623 16674 8337
N 3108.24 141.653 124.328 16675 8338
N 3108.93 142.015 123.538 16676 8338
N 2862.88 11.7704 104.247 16677 8339
N 2863.45 11.0432 103.618 16678 8339
N 3164.21 16.7861 59.1182 16679 8340
N 3165.21 16.5725 59.566 16680 8340
N 2876.38 101.477 126.158 16681 8341
N 2877.02 101.141 125.301 16682 8341
N 2997.63 96.82769999999999 26.9488 16683 8342
N 2997.97 96.37260000000001 25.9843 16684 8342
N 3066.97 4.74707 62.6156 16685 8343
N 3067.18 4.97154 63.69 16686 8343
N 2893.35 12.8437 83.1853 16687 8344
N 2894.15 13.4127 82.65560000000001 16688 8344
N 2733.65 35.3767 146.573 16689 8345
N 2733.9 35.5722 145.494 16690 8345
N 3057.81 13.5934 18.1152 16691 8346
N 3057.45 12.6734 17.585 16692 8346
N 3036.15 22.0888 132.568 16693 8347
N 3037.14 22.5938 132.713 16694 8347
N 2772.25 94.9462 129.476 16695 8348
N 2772.11 95.9255 130.02 16696 8348
N 2906.67 135.069 1.83688 16697 8349
N 2906.49 134.945 2.92775 16698 8349
N 3102.52 51.5725 79.4462 16699 8350
N 3102.72 51.4429 78.3561 16700 8350
N 3033.82 1.27322 125.032 16701 8351
N 3034.14 0.869842 124.043 16702 8351
N 3138.7 54.531 36.9292 16703 8352
N 3138.37 54.6296 35.8647 16704 8352
N 2869.49 6.85574 9.39777 16705 8353
N 2870.51 7.30943 9.455410000000001 16706 8353
N 3061.2 71.8402 129.767 16707 8354
N 3061.09 72.66540000000001 130.514 16708 8354
N 2344.63 78.9658 67.86320000000001 16709 8355
N 2345.72 78.813 67.6596 16710 8355
N 3092.1 132.339 109.28 16711 8356
N 3091.57 131.424 109.589 16712 8356
N 3183.03 93.75960000000001 134.913 16713 8357
N 3182.49 93.3436 134.035 16714 8357
N 2962.78 33.6112 11.2641 16715 8358
N 2963.55 32.8044 11.3716 16716 8358
N 3222.1 100.507 82.76949999999999 16717 8359
N 3223.01 100.311 83.38809999999999 16718 8359
N 2924.28 21.9112 94.8308 16719 8360
N 2924.55 21.2864 95.72490000000001 16720 8360
N 3016.23 101.386 66.2501 16721 8361
N 3017.04 100.65 66.0154 16722 8361
N 3212.1 15.2042 67.7024 16723 8362
N 3213.14 15.4192 67.3314 16724 8362
N 3090.43 80.8467 99.49760000000001 16725 8363
N 3090.92 81.24460000000001 100.426 16726 8363
N 3070.72 149.622 45.3278 16727 8364
N 3071.16 149.444 46.3396 16728 8364
N 2952.5 121.23 38.1091 16729 8365
N 2952.66 121.413 37.0282 16730 8365
N 2871.27 12.0966 26.3728 16731 8366
N 2870.9 12.348 25.3505 16732 8366
N 3108.48 0.663021 76.7565 16733 8367
N 3109 1.24931 77.56270000000001 16734 8367
N 3146.49 97.41889999999999 0.131049 16735 8368
N 3147.38 98.0665 0.282247 16736 8368
N 2720.77 36.2841 135.256 16737 8369
N 2720.84 35.5182 136.071 16738 8369
N 2928.78 88.1527 83.55970000000001 16739 8370
N 2929.58 88.20229999999999 84.3325 16740 8370
N 3002.53 15.7374 0.271975 16741 8371
N 3001.81 16.5603 0.0306412 16742 8371
N 2934.92 137.769 71.36539999999999 16743 8372
N 2934.88 138.881 71.2516 16744 8372
N 3124.23 41.6016 121.265 16745 8373
N 3123.65 42.3395 120.646 16746 8373
N 3038.33 149.531 88.7645 16747 8374
N 3039.13 149.185 89.45699999999999 16748 8374
N 3233.77 14.7323 71.09739999999999 16749 8375
N 3234.83 14.8738 70.8235 16750 8375
N 3124.6 87.65389999999999 38.0775 16751 8376
N 3123.94 88.0067 38.8997 16752 8376
N 3048.36 126.613 64.9379 16753 8377
N 3047.59 126.073 65.57810000000001 16754 8377
N 2849.83 72.9637 101.052 16755 8378
N 2850.5 72.2597 100.506 16756 8378
N 2856.96 31.5676 140.34 16757 8379
N 2856.83 32.1189 139.375 16758 8379
N 3136.61 86.0617 79.21729999999999 16759 8380
N 3137.64 86.5117 79.1782 16760 8380
N 2914.69 141.005 71.81480000000001 16761 8381
N 2915.8 141.154 71.7868 16762 8381
N 3133.69 85.82389999999999 44.5856 16763 8382
N 3133.25 86.54259999999999 45.309 16764 8382
N 3144.09 124.243 125.889 16765 8383
N 3143.3 124.248 126.689 16766 8383
N 3210.35 135.885 0.874903 16767 8384
N 3210.94 135.805 1.81258 16768 8384
N 3172.36 142.758 148.592 16769 8385
N 3171.53 142.446 149.287 16770 8385
N 3067.57 148.883 74.7343 16771 8386
N 3067.95 149.893 74.4392 16772 8386
N 3074.78 13.2838 147.159 16773 8387
N 3074.84 13.1366 148.266 16774 8387
N 2870.84 133.073 138.613 16775 8388
N 2870.16 132.461 139.228 16776 8388
N 3115.66 83.29689999999999 54.5593 16777 8389
N 3116.62 82.8511 54.2098 16778 8389
N 3218.96 44.113 99.87090000000001 16779 8390
N 3219.4 43.1344 99.52679999999999 16780 8390
N 2972.9 51.8245 94.9126 16781 8391
N 2972.77 52.581 94.0972 16782 8391
N 3107.01 127.151 34.2257 16783 8392
N 3107.49 127.263 33.2153 16784 8392
N 3104.33 142.43 129.165 16785 8393
N 3103.6 141.806 128.601 16786 8393
N 3055.53 55.3309 82.9387 16787 8394
N 3055.63 55.1967 84.0408 16788 8394
N 2981.39 64.66889999999999 115.635 16789 8395
N 2980.8 64.1767 114.844 16790 8395
N 2975.89 7.91948 27.1693 16791 8396
N 2976.71 8.22899 26.4969 16792 8396
N 2980.75 78.81440000000001 9.35108 16793 8397
N 2981.55 79.56140000000001 9.52439 16794 8397
N 3124.55 134.568 145.979 16795 8398
N 3125.52 134.728 145.462 16796 8398
N 3028.47 93.1983 39.9841 16797 8399
N 3027.38 93.4661 39.8943 16798 8399
N 2906.51 46.8775 77.4183 16799 8400
N 2905.72 46.8123 76.6263 16800 8400
N 3031.86 146.48 113.323 16801 8401
N 3030.95 146.672 112.741 16802 8401
N 3108.99 82.7407 112.87 16803 8402
N 3109.22 82.03019999999999 113.703 16804 8402
N 2992.59 50.0854 39.7229 16805 8403
N 2991.71 50.5483 40.2354 16806 8403
N 3096.02 130.081 126.282 16807 8404
N 3097.12 129.937 126.172 16808 8404
N 2369.11 90.5956 35.5784 16809 8405
N 2368.33 90.6395 36.3718 16810 8405
N 2867.33 91.2563 45.7586 16811 8406
N 2868.26 91.2932 45.133 16812 8406
N 3200.3 75.3948 63.7914 16813 8407
N 3199.7 75.6502 62.8885 16814 8407
N 2978.1 117.84 15.1849 16815 8408
N 2977.82 118.6 15.9491 16816 8408
N 3020.27 124.091 129.543 16817 8409
N 3019.64 124.395 130.422 16818 8409
N 3147.5 88.9742 114.338 16819 8410
N 3147.08 89.1996 115.347 16820 8410
N 3104.54 58.5403 104.02 16821 8411
N 3105.58 58.8629 103.756 16822 8411
N 3168.39 8.17329 4.13637 16823 8412
N 3167.35 8.50526 3.90759 16824 8412
N 3211.21 62.1659 67.0535 16825 8413
N 3211.88 61.4404 66.5476 16826 8413
N 2968.34 105.403 18.3024 16827 8414
N 2969.08 104.893 18.9652 16828 8414
N 3058.12 8.60829 51.0132 16829 8415
N 3057.86 7.59905 50.6408 16830 8415
N 3096.22 8.309900000000001 36.4171 16831 8416
N 3097.26 8.723940000000001 36.463 16832 8416
N 3131.74 129.992 91.6229 16833 8417
N 3132 130.015 92.7058 16834 8417
N 2951.17 67.8729 41.3708 16835 8418
N 2950.78 67.4246 42.3321 16836 8418
N 2626.92 106.456 109.455 16837 8419
N 2627.74 106.785 110.155 16838 8419
N 3177.23 122.201 92.6387 16839 8420
N 3176.55 122.646 93.3831 16840 8420
N 3192.43 76.0277 116.795 16841 8421
N 3192.78 76.3026 117.832 16842 8421
N 3171.53 142.582 76.7205 16843 8422
N 3170.94 141.622 76.69759999999999 16844 8422
N 2823.04 131.12 57.4527 16845 8423
N 2824.11 131.353 57.2084 16846 8423
N 2291.73 29.1283 38.4532 16847 8424
N 2292.68 29.3971 38.9848 16848 8424
N 3082.87 48.05 37.5063 16849 8425
N 3082.17 48.9249 37.5622 16850 8425
N 3084.48 79.1778 144.187 16851 8426
N 3085.04 78.3026 144.604 16852 8426
N 2889.19 15.1566 100.231 16853 8427
N 2889.57 15.4169 101.244 16854 8427
N 3165.39 113.27 48.3907 16855 8428
N 3166.1 113.089 47.5413 16856 8428
N 2514.55 122.696 4.11948 16857 8429
N 2514 122.831 3.15219 16858 8429
N 3138.39 4.29119 27.993 16859 8430
N 3137.26 4.30826 28.0954 16860 8430
N 2708.41 64.9123 115.938 16861 8431
N 2707.91 65.69450000000001 115.34 16862 8431
N 2764.76 136.415 144.37 16863 8432
N 2764.52 135.863 145.305 16864 8432
N 2953.22 11.8183 50.0674 16865 8433
N 2953.88 12.5595 50.5963 16866 8433
N 3130.19 94.492 25.7213 16867 8434
N 3131.2 94.3665 25.2874 16868 8434
N 2987.98 107.033 57.9793 16869 8435
N 2986.97 106.925 57.5046 16870 8435
N 3142.46 28.8607 104.336 16871 8436
N 3142.86 28.0777 105.027 16872 8436
N 3066.16 76.28440000000001 130.991 16873 8437
N 3065.13 75.85509999999999 131.004 16874 8437
N 3133.93 46.6682 97.8965 16875 8438
N 3133.82 47.7648 97.74550000000001 16876 8438
N 2846.89 77.9395 39.9125 16877 8439
N 2847.57 77.075 39.6839 16878 8439
N 3122.94 77.07550000000001 111.457 16879 8440
N 3123.06 75.968 111.378 16880 8440
N 2717.64 111.812 102.156 16881 8441
N 2718.09 111.634 101.149 16882 8441
N 2961.17 98.11190000000001 94.7518 16883 8442
N 2960.5 97.9588 95.6323 16884 8442
N 2959.29 52.08 71.15860000000001 16885 8443
N 2958.65 52.2462 70.2492 16886 8443
N 3064.34 97.7924 138.994 16887 8444
N 3063.58 98.60469999999999 138.832 16888 8444
N 3131.73 53.0277 67.6588 16889 8445
N 3132.01 53.9778 67.143 16890 8445
N 3195.36 147.334 52.2585 16891 8446
N 3196.09 146.799 51.6041 16892 8446
N 3216.2 16.8948 4.31538 16893 8447
N 3217.26 17.1345 4.47938 16894 8447
N 3067.14 45.5575 38.1056 16895 8448
N 3067.08 46.6628 38.2086 16896 8448
N 3167.5 136.134 12.1093 16897 8449
N 3167.06 136.796 11.3221 16898 8449
N 3104.93 84.8158 92.7089 16899 8450
N 3104.91 83.9179 93.37779999999999 16900 8450
N 3015.52 14.2571 118.803 16901 8451
N 3015.9 13.5188 118.06 16902 8451
N 3080.76 115.595 64.1117 16903 8452
N 3080.9 116.566 64.6361 16904 8452
N 3063.77 5.39974 49.7797 16905 8453
N 3063.84 4.3799 49.3125 16906 8453
N 2768.4 106.023 71.9123 16907 8454
N 2767.51 106.582 72.27370000000001 16908 8454
N 3141.79 86.2287 80.3133 16909 8455
N 3142.89 86.03619999999999 80.39230000000001 16910 8455
N 3034.72 13.5791 88.1473 16911 8456
N 3034.72 14.5302 88.7171 16912 8456
N 2904.26 18.4691 110.793 16913 8457
N 2904.39 18.2119 111.876 16914 8457
N 3205.74 47.7774 82.4738 16915 8458
N 3205.4 48.531 81.7193 16916 8458
N 3050.19 99.4062 133.137 16917 8459
N 3051.27 99.72110000000001 133.066 16918 8459
N 3234.74 43.7885 2.75769 16919 8460
N 3235.39 42.9775 2.33513 16920 8460
N 3221.49 25.971 109.159 16921 8461
N 3221.1 24.9706 109.466 16922 8461
N 3042.4 92.0031 39.1144 16923 8462
N 3042.4 91.0633 39.7148 16924 8462
N 2881.6 144.2 116.733 16925 8463
N 2881.06 145.172 116.777 16926 8463
N 3202.97 113.848 129.39 16927 8464
N 3202.98 114.946 129.088 16928 8464
N 3039.02 79.169 43.138 16929 8465
N 3038.91 78.0772 42.9182 16930 8465
N 3182.39 20.8857 146.651 16931 8466
N 3183.06 21.7349 146.97 16932 8466
N 2986.53 32.9366 71.4945 16933 8467
N 2986.32 31.9042 71.8235 16934 8467
N 3094.45 139.109 45.2745 16935 8468
N 3094.27 139.624 46.236 16936 8468
N 3136.66 141.053 102.885 16937 8469
N 3136.19 140.126 103.279 16938 8469
N 3105.11 75.4928 41.6297 16939 8470
N 3105.08 74.3678 41.5427 16940 8470
N 3196.25 136.651 97.6143 16941 8471
N 3197.07 135.943 97.92789999999999 16942 8471
N 2698.66 22.8946 73.4378 16943 8472
N 2697.64 22.4424 73.4264 16944 8472
N 3107.05 137.082 133.321 16945 8473
N 3107.26 136.134 132.756 16946 8473
N 3180.18 130.623 98.8796 16947 8474
N 3181.1 130.368 98.3078 16948 8474
N 3108.64 145.836 131.035 16949 8475
N 3109.53 145.16 130.97 16950 8475
N 3107.84 119.364 124.084 16951 8476
N 3108.44 119.305 125.014 16952 8476
N 2933.73 56.3128 138.102 16953 8477
N 2933.44 56.5407 137.044 16954 8477
N 3036.87 48.4655 60.5507 16955 8478
N 3036.12 49.2406 60.23 16956 8478
N 2886.31 32.9794 41.8669 16957 8479
N 2886.45 32.2444 42.6909 16958 8479
N 3194.64 5.13495 32.8674 16959 8480
N 3195.42 4.63896 32.2303 16960 8480
N 3043.57 81.623 74.28440000000001 16961 8481
N 3043.82 81.0022 73.38500000000001 16962 8481
N 2852.94 90.343 43.3609 16963 8482
N 2853.91 89.7886 43.2797 16964 8482
N 3004.2 63.3774 135.245 16965 8483
N 3004.18 62.5479 135.981 16966 8483
N 3177.22 36.3177 74.2316 16967 8484
N 3176.97 36.7545 73.2338 16968 8484
N 3165.36 138.251 47.2623 16969 8485
N 3164.75 138.357 46.3219 16970 8485
N 3140.38 16.7554 99.4091 16971 8486
N 3139.68 16.1056 98.8432 16972 8486
N 3081.63 13.5022 3.66513 16973 8487
N 3081.57 14.4986 4.18103 16974 8487
N 3126.86 81.43049999999999 140.392 16975 8488
N 3127.66 81.2598 139.629 16976 8488
N 2989.88 12.6587 34.1853 16977 8489
N 2989.86 13.6664 34.6407 16978 8489
N 3184.56 55.3966 66.9045 16979 8490
N 3185.67 55.4861 66.8747 16980 8490
N 3041.05 38.2397 35.6858 16981 8491
N 3040.17 38.2734 35.007 16982 8491
N 3106.36 70.629 123.416 16983 8492
N 3107.13 71.42829999999999 123.377 16984 8492
N 2646.65 107.585 7.13953 16985 8493
N 2646.87 107.516 6.04578 16986 8493
N 2926.96 68.4936 34.1803 16987 8494
N 2926.77 68.53530000000001 35.2812 16988 8494
N 3218.51 59.4437 70.3092 16989 8495
N 3219.1 60.1658 70.923 16990 8495
N 3174.37 64.1985 79.37090000000001 16991 8496
N 3173.73 64.67789999999999 78.62 16992 8496
N 2789.24 77.7821 130.173 16993 8497
N 2788.91 78.8411 130.025 16994 8497
N 3017.38 136.712 109.548 16995 8498
N 3018.05 137.255 108.865 16996 8498
N 3038.98 149.406 1.43981 16997 8499
N 3039.32 0.345296 0.9436330000000001 16998 8499
N 2402.86 90.06440000000001 140.847 16999 8500
N 2403.94 89.9258 140.618 17000 8500
N 2796.2 2.26658 149.748 17001 8501
N 2795.14 2.64975 149.819 17002 8501
N 3050.84 31.1557 24.8209 17003 8502
N 3051.25 30.3348 25.4626 17004 8502
N 2834.6 136.018 148.374 17005 8503
N 2834.32 136.559 149.316 17006 8503
N 3159.51 0.663756 109.141 17007 8504
N 3159.98 1.30913 109.899 17008 8504
N 3095.48 121.432 78.75 17009 8505
N 3095.12 121.449 79.80500000000001 17010 8505
N 3176.76 6.93676 108.944 17011 8506
N 3176.83 6.94935 110.062 17012 8506
N 3212.18 34.7164 128.855 17013 8507
N 3213.15 35.2131 129.152 17014 8507
N 3156.76 27.2188 78.7026 17015 8508
N 3156.56 28.1947 79.2184 17016 8508
N 2544.84 127.923 2.28325 17017 8509
N 2545.9 127.91 1.8958 17018 8509
N 2726.27 33.0931 146.898 17019 8510
N 2725.51 33.9101 146.75 17020 8510
N 3048.63 35.6281 99.4233 17021 8511
N 3048.28 35.7307 100.478 17022 8511
N 3182.75 19.7749 10.583 17023 8512
N 3182.48 20.5543 11.3379 17024 8512
N 2768.66 66.502 1.16825 17025 8513
N 2768.25 67.0812 2.03491 17026 8513
N 2963.98 102.672 2.86662 17027 8514
N 2963.45 103.232 2.05435 17028 8514
N 2704.77 28.0506 94.21469999999999 17029 8515
N 2705.43 27.7896 93.3681 17030 8515
N 3024.91 11.3441 116.549 17031 8516
N 3025.9 11.8016 116.798 17032 8516
N 3138.34 131.757 75.33459999999999 17033 8517
N 3137.33 131.512 75.7714 17034 8517
N 3092.52 126.207 39.337 17035 8518
N 3092.3 127.119 38.7304 17036 8518
N 2964.85 21.8968 111.911 17037 8519
N 2964.72 23.0102 111.929 17038 8519
N 3091.98 139.055 133.995 17039 8520
N 3092.8 139.165 133.247 17040 8520
N 2700.35 144.227 0.61422 17041 8521
N 2699.27 144.346 0.371163 17042 8521
N 2978.13 36.4024 86.0209 17043 8522
N 2977.18 36.2704 86.5686 17044 8522
N 2755.32 61.9051 63.2896 17045 8523
N 2754.53 62.3661 63.9217 17046 8523
N 2948.53 48.5483 124.567 17047 8524
N 2948.93 47.5288 124.333 17048 8524
N 2880.79 38.0211 94.12139999999999 17049 8525
N 2880.11 37.2307 94.5149 17050 8525
N 3034.16 91.0689 45.2689 17051 8526
N 3033.9 91.2423 44.1969 17052 8526
N 3148.48 67.79089999999999 39.7687 17053 8527
N 3148.45 67.5335 38.6758 17054 8527
N 3144.1 130.906 51.5885 17055 8528
N 3145.09 131.358 51.2989 17056 8528
N 3111.65 65.8734 136.395 17057 8529
N 3112.61 66.3813 136.538 17058 8529
N 2745.69 113.829 98.00700000000001 17059 8530
N 2745.61 114.616 98.7997 17060 8530
N 3084.95 48.3035 18.4502 17061 8531
N 3085.18 48.012 17.4189 17062 8531
N 2853.78 110.49 74.3386 17063 8532
N 2854.34 110.183 75.2594 17064 8532
N 3106.86 114.511 148.319 17065 8533
N 3107.81 114.88 147.869 17066 8533
N 3125.58 147.968 43.8366 17067 8534
N 3125.9 148.656 43.0134 17068 8534
N 3074.06 102.111 44.1725 17069 8535
N 3074.42 101.958 45.2161 17070 8535
N 2831.04 126.065 36.6159 17071 8536
N 2831.67 125.902 35.71 17072 8536
N 2906.69 146.751 69.4311 17073 8537
N 2905.78 146.546 70.0402 17074 8537
N 3118.67 141.323 99.6514 17075 8538
N 3117.82 141.059 98.9759 17076 8538
N 3066.97 50.0143 78.34099999999999 17077 8539
N 3066.2 49.8205 79.12130000000001 17078 8539
N 3040.88 9.75299 137.158 17079 8540
N 3041.94 9.81864 137.523 17080 8540
N 3160.54 52.753 70.70350000000001 17081 8541
N 3160.78 51.6701 70.5595 17082 8541
N 3075.45 115.666 1.61292 17083 8542
N 3075.88 114.698 1.96326 17084 8542
N 2927.73 6.04077 71.74209999999999 17085 8543
N 2928.54 5.26867 71.82429999999999 17086 8543
N 3101.21 62.7991 147.031 17087 8544
N 3100.96 63.6498 146.347 17088 8544
N 3079.02 35.0793 93.12009999999999 17089 8545
N 3079.96 35.679 93.3249 17090 8545
N 3136.13 122.893 10.7213 17091 8546
N 3135.31 123.255 10.0586 17092 8546
N 3117.1 123.651 47.9633 17093 8547
N 3116.65 124.062 48.8977 17094 8547
N 3007.08 42.3068 108.197 17095 8548
N 3007.28 41.8006 109.177 17096 8548
N 3208.86 101.465 116.54 17097 8549
N 3209.35 100.514 116.18 17098 8549
N 2936.08 23.6385 86.34610000000001 17099 8550
N 2935.71 22.9249 87.1271 17100 8550
N 2897.69 69.9618 101.879 17101 8551
N 2897.23 69.0021 101.507 17102 8551
N 3186.07 9.973380000000001 98.0151 17103 8552
N 3186.42 11.0303 98.0544 17104 8552
N 2861.4 76.97969999999999 115.625 17105 8553
N 2862.26 77.63939999999999 115.862 17106 8553
N 2937.09 77.4358 71.7817 17107 8554
N 2937.59 78.4071 71.5318 17108 8554
N 2562.92 124.777 85.08710000000001 17109 8555
N 2563.31 123.847 85.58029999999999 17110 8555
N 3171.98 137.803 10.9203 17111 8556
N 3171.09 137.715 11.606 17112 8556
N 2997.3 65.7668 121.934 17113 8557
N 2998.15 66.3689 121.525 17114 8557
N 3042.86 20.7078 129.137 17115 8558
N 3042.64 20.4248 130.196 17116 8558
N 3185.83 120.685 123.841 17117 8559
N 3185.52 121.74 123.595 17118 8559
N 3008.69 81.58880000000001 100.347 17119 8560
N 3008.92 81.2979 101.42 17120 8560
N 2932.32 46.7451 116.389 17121 8561
N 2933.16 46.8153 115.667 17122 8561
N 3052.01 33.7944 75.2428 17123 8562
N 3050.9 33.7934 75.1216 17124 8562
N 2882.08 3.28847 15.5406 17125 8563
N 2881.41 3.04734 14.6806 17126 8563
N 3233.76 132.594 43.1021 17127 8564
N 3233.78 132.401 44.1896 17128 8564
N 2873.41 102.539 114.93 17129 8565
N 2874.43 102.973 115.077 17130 8565
N 2995.84 61.6958 22.1415 17131 8566
N 2996.45 61.4137 21.2547 17132 8566
N 2795.93 23.6632 137.694 17133 8567
N 2796.13 23.6882 138.79 17134 8567
N 3196.54 82.2539 80.1669 17135 8568
N 3196.06 82.0027 81.1506 17136 8568
N 2851.83 114.166 42.0871 17137 8569
N 2852.63 113.445 41.7912 17138 8569
N 2806.23 30.6622 11.6789 17139 8570
N 2805.74 29.6613 11.6984 17140 8570
N 3089.89 28.9185 6.63406 17141 8571
N 3090.83 28.7628 6.05869 17142 8571
N 2953.68 122.351 67.7313 17143 8572
N 2953.22 121.333 67.7672 17144 8572
N 3239.34 121.093 124.33 17145 8573
N 3238.47 121.534 124.904 17146 8573
N 2916.44 29.4898 4.27102 17147 8574
N 2917.49 29.4038 4.63283 17148 8574
N 2797.14 19.6955 132.958 17149 8575
N 2797.98 19.5798 132.238 17150 8575
N 3188.05 124.168 67.985 17151 8576
N 3188.91 123.468 68.1601 17152 8576
N 2998.93 41.3031 19.6906 17153 8577
N 2999.25 42.2827 19.2373 17154 8577
N 3180.61 62.145 81.8809 17155 8578
N 3180.88 61.5787 82.8189 17156 8578
N 3030.02 89.64109999999999 42.2174 17157 8579
N 3029.78 88.54430000000001 42.2277 17158 8579
N 2854.13 27.6526 21.7357 17159 8580
N 2854.4 28.3434 22.5807 17160 8580
N 3108.15 23.9523 149.895 17161 8581
N 3109.12 24.2876 149.473 17162 8581
N 3202.3 78.6636 52.3382 17163 8582
N 3201.22 78.9237 52.4642 17164 8582
N 2891.7 49.5027 120.376 17165 8583
N 2891.43 48.4307 120.361 17166 8583
N 3136.44 119.193 112.481 17167 8584
N 3136.88 119.855 113.273 17168 8584
N 2943.81 38.4709 86.0932 17169 8585
N 2943.78 39.2155 86.9391 17170 8585
N 3066.66 37.2699 98.89409999999999 17171 8586
N 3066.68 36.3038 98.3344 17172 8586
N 3179.96 12.7433 145.416 17173 8587
N 3178.93 13.1315 145.626 17174 8587
N 3085.17 53.6507 84.4537 17175 8588
N 3085.14 54.6473 84.9645 17176 8588
N 3130.81 70.2313 74.7184 17177 8589
N 3130.15 70.7358 75.4768 17178 8589
N 3122.51 53.444 23.9119 17179 8590
N 3123.59 53.1713 23.7286 17180 8590
N 2728.4 14.2767 110.427 17181 8591
N 2728.53 14.5667 109.352 17182 8591
N 3085.17 51.9957 100.669 17183 8592
N 3085.28 52.8531 101.373 17184 8592
N 2780.43 28.9173 142.036 17185 8593
N 2781.16 29.6677 141.633 17186 8593
N 2764.15 111.573 84.01730000000001 17187 8594
N 2763.32 111.04 83.4802 17188 8594
N 2972.36 110.461 112.711 17189 8595
N 2972.06 109.655 113.428 17190 8595
N 3038.4 13.0859 130.459 17191 8596
N 3038.32 14.1696 130.769 17192 8596
N 3049.37 140.2 65.11490000000001 17193 8597
N 3048.63 141.029 65.2548 17194 8597
N 3072.18 59.8553 26.8517 17195 8598
N 3072.96 59.1991 27.3089 17196 8598
N 2713.7 2.09177 104.488 17197 8599
N 2713.1 2.00333 103.548 17198 8599
N 3074.9 128.748 67.37090000000001 17199 8600
N 3074.95 128.983 68.452 17200 8600
N 2932.22 14.9078 42.4486 17201 8601
N 2933.22 15.0561 41.9567 17202 8601
N 3060.96 84.6563 56.5095 17203 8602
N 3060.81 84.70950000000001 57.6124 17204 8602
N 3061.99 146.354 21.7507 17205 8603
N 3061.93 145.243 21.8835 17206 8603
N 3199.06 75.72020000000001 86.79049999999999 17207 8604
N 3199.53 76.7046 86.5231 17208 8604
N 3159.51 126.834 121.581 17209 8605
N 3159.29 125.758 121.859 17210 8605
N 3067.37 34.5605 124.798 17211 8606
N 3067.84 34.0738 125.691 17212 8606
N 3095.08 99.8836 10.7752 17213 8607
N 3094.75 99.7109 11.8403 17214 8607
N 3073.67 21.6018 128.108 17215 8608
N 3072.94 21.5907 127.251 17216 8608
N 3193.08 35.0725 93.7217 17217 8609
N 3194.17 34.8379 93.82250000000001 17218 8609
N 3085.79 88.4666 94.3672 17219 8610
N 3085.74 88.1739 93.29340000000001 17220 8610
N 3050.49 90.86920000000001 63.8428 17221 8611
N 3051.37 90.17659999999999 63.9042 17222 8611
N 3034.36 99.5299 62.6195 17223 8612
N 3034.65 100.265 63.4172 17224 8612
N 3061.86 148.327 16.513 17225 8613
N 3062.1 148.996 17.3583 17226 8613
N 3193.58 28.0098 98.2419 17227 8614
N 3193.83 28.9707 97.7252 17228 8614
N 3099.08 94.667 117.033 17229 8615
N 3098.07 95.0996 116.853 17230 8615
N 3228.3 90.953 97.1063 17231 8616
N 3227.36 91.5299 97.3342 17232 8616
N 3177.34 125.647 104.763 17233 8617
N 3177.76 125.964 105.744 17234 8617
N 2853.58 107.681 66.1233 17235 8618
N 2853.16 108.52 66.7296 17236 8618
N 3200.85 54.4849 143.76 17237 8619
N 3200.41 54.5977 144.775 17238 8619
N 3176.3 69.1724 63.941 17239 8620
N 3175.25 69.37649999999999 63.6172 17240 8620
N 3211.59 39.3159 3.76962 17241 8621
N 3211.61 38.4394 4.47026 17242 8621
N 2914 49.6075 20.5871 17243 8622
N 2912.93 49.7988 20.3348 17244 8622
N 3070.81 123.822 112.687 17245 8623
N 3070.42 123.27 111.795 17246 8623
N 2952.19 122.852 101.185 17247 8624
N 2953.06 122.768 101.881 17248 8624
N 2925.66 21.8959 70.3168 17249 8625
N 2926.65 22.4046 70.167 17250 8625
N 3226.4 105.494 71.8849 17251 8626
N 3226.64 106.328 71.1756 17252 8626
N 3180.35 17.5264 66.1117 17253 8627
N 3180.55 17.6389 67.2059 17254 8627
N 3036.65 45.057 52.8136 17255 8628
N 3035.72 45.5164 53.2232 17256 8628
N 3038.64 75.1534 25.2135 17257 8629
N 3037.62 74.6962 25.3117 17258 8629
N 2810.24 50.7416 85.3091 17259 8630
N 2810.25 51.317 84.3535 17260 8630
N 3014.21 103.939 61.3282 17261 8631
N 3014.46 104.253 62.3733 17262 8631
N 2972.61 128.191 140.478 17263 8632
N 2972.12 128.88 139.751 17264 8632
N 3230.74 76.8706 73.69159999999999 17265 8633
N 3230.13 77.7915 73.7747 17266 8633
N 2828.17 129.483 50.5259 17267 8634
N 2827.96 128.69 51.2816 17268 8634
N 2876.09 112.662 69.2788 17269 8635
N 2876.48 112.043 70.1189 17270 8635
N 3174.67 138.142 16.8089 17271 8636
N 3174.06 138.807 16.1443 17272 8636
N 2903.88 148.57 131.253 17273 8637
N 2903.28 147.696 131.63 17274 8637
N 3234.83 17.2329 82.7908 17275 8638
N 3233.84 17.5873 82.3852 17276 8638
N 3053.33 109.971 62.9339 17277 8639
N 3052.29 110.374 63.0544 17278 8639
N 3107.63 130.807 72.29649999999999 17279 8640
N 3108.09 130.581 71.30410000000001 17280 8640
N 3231.26 42.7188 50.2355 17281 8641
N 3231.04 41.6581 50.5299 17282 8641
N 3066.2 141.013 113.427 17283 8642
N 3067.24 141.299 113.722 17284 8642
N 2423.1 4.47495 130.729 17285 8643
N 2423.67 3.7035 131.313 17286 8643
N 3125.51 127.318 52.2129 17287 8644
N 3126.47 127.679 51.7596 17288 8644
N 3174.67 133.588 108.144 17289 8645
N 3174.72 132.769 107.388 17290 8645
N 3052.91 38.3205 140.975 17291 8646
N 3053.32 39.1417 140.332 17292 8646
N 2965.06 113.374 81.54219999999999 17293 8647
N 2964.89 112.834 82.5099 17294 8647
N 2958.95 129.786 142.796 17295 8648
N 2958.46 128.92 142.235 17296 8648
N 3090.08 93.4789 35.9726 17297 8649
N 3089.38 93.5414 35.1001 17298 8649
N 3016.15 111.151 147.677 17299 8650
N 3015.5 110.301 147.972 17300 8650
N 2993.29 107.484 74.3023 17301 8651
N 2992.33 107.544 73.75 17302 8651
N 3239.55 147.48 53.2532 17303 8652
N 3238.9 146.937 53.9891 17304 8652
N 3066.4 75.78879999999999 121.813 17305 8653
N 3067.16 76.57729999999999 121.606 17306 8653
N 3137.66 33.8183 36.0202 17307 8654
N 3138.75 34.0442 35.8616 17308 8654
N 2804.36 15.6238 59.7352 17309 8655
N 2804.37 15.4059 58.6499 17310 8655
N 3205.46 56.057 4.16562 17311 8656
N 3205.81 56.383 5.17786 17312 8656
N 3152.56 149.412 146.398 17313 8657
N 3152.7 148.381 146.813 17314 8657
N 3015 91.88290000000001 37.0241 17315 8658
N 3015.02 90.8052 37.2792 17316 8658
N 3235.74 66.405 30.2029 17317 8659
N 3236.5 66.9877 29.6313 17318 8659
N 2994.35 4.1654 43.2483 17319 8660
N 2994.47 5.18518 43.691 17320 8660
N 3217.11 63.0496 46.6172 17321 8661
N 3217.66 62.3335 47.2681 17322 8661
N 3091.36 130.269 81.1983 17323 8662
N 3090.25 130.424 81.2435 17324 8662
N 3196.34 54.4367 48.9272 17325 8663
N 3197.35 54.6833 48.4999 17326 8663
N 3109.83 141.265 0.0727868 17327 8664
N 3110.51 141.78 0.80466 17328 8664
N 3049.14 2.60846 54.6241 17329 8665
N 3049.23 1.7323 53.9376 17330 8665
N 3130.99 148.597 68.1452 17331 8666
N 3132.07 148.359 67.9517 17332 8666
N 3088.12 143.685 98.9832 17333 8667
N 3087.8 143.175 99.9237 17334 8667
N 2984 99.1604 70.8498 17335 8668
N 2983.13 98.48650000000001 70.7052 17336 8668
N 2846.47 107.253 15.5913 17337 8669
N 2846.76 106.378 14.9553 17338 8669
N 3181.91 73.2106 44.111 17339 8670
N 3181.24 73.33450000000001 44.9993 17340 8670
N 3160.52 70.8139 73.0282 17341 8671
N 3160.51 69.7325 72.72750000000001 17342 8671
N 2980.36 130.268 103.54 17343 8672
N 2980.15 131.187 102.943 17344 8672
N 3188.94 70.05840000000001 74.7281 17345 8673
N 3189.78 70.6525 74.3062 17346 8673
N 3223.19 24.4227 143.601 17347 8674
N 3224.2 24.1837 143.972 17348 8674
N 3017.71 36.7906 28.49 17349 8675
N 3017.17 37.2932 29.3324 17350 8675
N 3060.33 45.2351 144.132 17351 8676
N 3060.41 44.2056 144.57 17352 8676
N 3045.32 39.507 68.2394 17353 8677
N 3046.06 40.2978 68.5209 17354 8677
N 3184.11 121.413 5.8539 17355 8678
N 3184.26 121.381 4.75255 17356 8678
N 3175.91 77.7201 89.8104 17357 8679
N 3175.33 77.3817 88.90819999999999 17358 8679
N 3162.66 98.6828 83.88679999999999 17359 8680
N 3163.74 98.4896 83.63 17360 8680
N 2999.26 12.3953 35.8085 17361 8681
N 2999.35 13.248 35.0898 17362 8681
N 3196.46 19.9908 59.3698 17363 8682
N 3196.78 20.7613 60.1148 17364 8682
N 3097.57 117.245 144.015 17365 8683
N 3096.88 117.27 144.912 17366 8683
N 3136.65 83.68729999999999 103.608 17367 8684
N 3136.05 82.85080000000001 103.135 17368 8684
N 2858.81 119.43 96.0904 17369 8685
N 2858 119.23 95.3232 17370 8685
N 3145.65 34.6512 135.547 17371 8686
N 3145.87 34.0564 134.618 17372 8686
N 3144.65 82.56489999999999 86.7593 17373 8687
N 3143.78 82.1281 86.1811 17374 8687
N 3025.08 67.57989999999999 137.755 17375 8688
N 3025.93 66.91540000000001 138.069 17376 8688
N 3017.37 105.331 43.7435 17377 8689
N 3016.29 105.573 43.8815 17378 8689
N 3110.96 1.05927 105.558 17379 8690
N 3110.66 0.00696752 105.767 17380 8690
N 2605.88 22.8502 64.1251 17381 8691
N 2606.44 22.0633 64.72069999999999 17382 8691
N 2921.75 89.9721 84.5823 17383 8692
N 2921.36 89.26730000000001 83.8014 17384 8692
N 3203.78 28.1043 107.632 17385 8693
N 3203.51 27.5221 106.726 17386 8693
N 2926.86 3.31669 85.8955 17387 8694
N 2927.72 3.65177 86.5432 17388 8694
N 3215.62 128.509 112.323 17389 8695
N 3215.65 127.406 112.514 17390 8695
N 3207.34 48.6932 70.60469999999999 17391 8696
N 3207.17 47.8078 69.9376 17392 8696
N 2837.92 24.0502 91.21899999999999 17393 8697
N 2838.34 23.0563 90.9127 17394 8697
N 2992.7 59.425 93.5136 17395 8698
N 2992.77 59.7892 92.4413 17396 8698
N 2952.54 46.0182 144.382 17397 8699
N 2952.94 46.9815 144.766 17398 8699
N 3093.61 106.752 66.9127 17399 8700
N 3094.48 106.345 66.3537 17400 8700
N 3124.67 9.63025 115.611 17401 8701
N 3125.36 9.04299 116.241 17402 8701
N 3235.48 26.0876 60.872 17403 8702
N 3234.85 26.9937 60.8409 17404 8702
N 2954.49 123.714 31.7531 17405 8703
N 2954.05 122.731 31.4741 17406 8703
N 2939.12 62.5042 147.005 17407 8704
N 2938.06 62.2889 147.331 17408 8704
N 2939.98 54.6762 145.929 17409 8705
N 2940.78 54.2227 146.582 17410 8705
N 3233.35 42.9598 13.6617 17411 8706
N 3232.65 43.5484 14.2854 17412 8706
N 2775.99 103.66 106.086 17413 8707
N 2776.68 104.366 105.535 17414 8707
N 3055.58 125.241 12.5281 17415 8708
N 3055.72 124.893 11.4842 17416 8708
N 3220.47 62.7959 53.7394 17417 8709
N 3219.65 62.6586 52.968 17418 8709
N 3123.55 92.4526 103.062 17419 8710
N 3123.43 93.3847 102.447 17420 8710
N 2989.44 135.082 145.085 17421 8711
N 2990.03 134.168 145.329 17422 8711
N 3141.12 2.88329 118.76 17423 8712
N 3140.05 2.66345 118.445 17424 8712
N 3086.35 14.299 56.43 17425 8713
N 3085.36 14.5469 56.8785 17426 8713
N 3108.88 18.3614 79.8103 17427 8714
N 3107.97 17.7863 80.1341 17428 8714
N 3162.17 128.686 128.257 17429 8715
N 3161.72 128.115 127.425 17430 8715
N 3218.9 19.2454 8.968529999999999 17431 8716
N 3218.6 20.0719 8.27894 17432 8716
N 3075.98 123.301 135.081 17433 8717
N 3075.73 124.27 134.582 17434 8717
N 3154.03 18.4374 44.0443 17435 8718
N 3153.25 19.2294 44.1779 17436 8718
N 3238.73 22.1789 65.25230000000001 17437 8719
N 3239.04 21.3633 65.9529 17438 8719
N 2824.22 64.4654 49.5894 17439 8720
N 2824.82 63.9185 50.3746 17440 8720
N 3118.44 122.115 53.8897 17441 8721
N 3118.51 121.932 52.7798 17442 8721
N 2953.93 117.587 125.543 17443 8722
N 2953.01 117.977 126.043 17444 8722
N 3146.46 126.707 5.91546 17445 8723
N 3147.26 126.271 5.29205 17446 8723
N 3104.46 134.62 108.314 17447 8724
N 3104.13 134.587 109.384 17448 8724
N 2602.93 18.9144 50.8601 17449 8725
N 2602.19 19.5447 50.3044 17450 8725
N 2917.97 53.5043 66.65949999999999 17451 8726
N 2917.95 54.5089 67.137 17452 8726
N 2902.87 18.1077 68.80110000000001 17453 8727
N 2902.34 17.1521 68.9866 17454 8727
N 2866.62 56.6362 12.4172 17455 8728
N 2866.51 56.776 13.5223 17456 8728
N 3178.27 111.576 54.8268 17457 8729
N 3179.01 110.803 55.1475 17458 8729
N 3227.03 108.034 55.4249 17459 8730
N 3225.99 107.592 55.4215 17460 8730
N 3096.31 103.549 76.1837 17461 8731
N 3096.82 104.481 75.8108 17462 8731
N 2959.02 148.932 128.96 17463 8732
N 2959.96 148.365 129.182 17464 8732
N 3144.81 11.6011 3.39778 17465 8733
N 3145.46 12.0823 2.6248 17466 8733
N 3122.18 107.156 6.2978 17467 8734
N 3121.23 107.746 6.20226 17468 8734
N 3091.48 77.75 49.7232 17469 8735
N 3090.69 78.236 50.3541 17470 8735
N 2766.14 42.2761 128.745 17471 8736
N 2766.78 42.334 127.842 17472 8736
N 3061.94 142.108 52.2052 17473 8737
N 3062.47 141.222 51.7789 17474 8737
N 3035.8 64.3749 10.46 17475 8738
N 3036.89 64.6122 10.4224 17476 8738
N 3168.82 7.11716 110.899 17477 8739
N 3168.03 6.74357 110.205 17478 8739
N 2791.6 73.8593 144.289 17479 8740
N 2791.09 74.8541 144.294 17480 8740
N 3083.01 36.9828 68.72880000000001 17481 8741
N 3082.98 35.917 68.35290000000001 17482 8741
N 3083.22 24.6766 6.69954 17483 8742
N 3084.2 25.2067 6.63122 17484 8742
N 2871.21 41.3026 0.0214041 17485 8743
N 2871.16 40.2595 0.413285 17486 8743
N 3101.1 45.7182 4.04 17487 8744
N 3102.18 45.963 4.1923 17488 8744
N 2996.18 42.4648 144.311 17489 8745
N 2996.77 42.4128 143.364 17490 8745
N 2999.11 30.3498 96.4016 17491 8746
N 2999.59 29.3601 96.19459999999999 17492 8746
N 3208.14 140.949 30.6427 17493 8747
N 3208.08 141.593 31.5719 17494 8747
N 3091.92 60.0871 132.69 17495 8748
N 3091.36 60.5493 131.848 17496 8748
N 3028.45 74.077 123.552 17497 8749
N 3027.79 74.31740000000001 124.411 17498 8749
N 3234.5 1.38583 73.6529 17499 8750
N 3233.96 2.04232 72.91379999999999 17500 8750
N 3152.46 127.012 131.824 17501 8751
N 3153.14 127.899 131.861 17502 8751
N 2852.68 84.34010000000001 148.267 17503 8752
N 2853.18 85.2991 147.988 17504 8752
N 3233.85 140.409 91.46299999999999 17505 8753
N 3234.4 139.523 91.0437 17506 8753
N 3127.3 56.2783 8.098319999999999 17507 8754
N 3128.3 56.6832 7.80708 17508 8754
N 2972.9 120.784 147.921 17509 8755
N 2972.24 121.681 147.931 17510 8755
N 3180.04 56.5663 48.7902 17511 8756
N 3180.52 57.5113 48.4539 17512 8756
N 3200.39 3.94429 95.06959999999999 17513 8757
N 3201.44 4.02719 95.49939999999999 17514 8757
N 3140.67 111.766 56.2819 17515 8758
N 3140.53 111.851 57.3916 17516 8758
N 3166.7 72.6528 52.677 17517 8759
N 3167.4 71.84520000000001 53.0004 17518 8759
N 3157.95 92.47239999999999 135.963 17519 8760
N 3158.58 93.39960000000001 135.952 17520 8760
N 3000.31 70.7414 140.45 17521 8761
N 2999.61 71.3532 139.816 17522 8761
N 3199.77 107.419 52.5092 17523 8762
N 3200.43 108.161 53.0278 17524 8762
N 3093.67 34.2451 24.3888 17525 8763
N 3093.13 33.4783 24.9806 17526 8763
N 3029.83 91.8368 45.994 17527 8764
N 3028.73 91.8133 46.1815 17528 8764
N 3165.14 102.882 116.251 17529 8765
N 3164.37 103.383 116.863 17530 8765
N 2765.58 133.708 108.751 17531 8766
N 2765.65 134.715 109.221 17532 8766
N 3045.97 31.8005 111.35 17533 8767
N 3046.04 32.6588 112.058 17534 8767
N 3183.85 149.228 49.9106 17535 8768
N 3184.81 149.329 50.4855 17536 8768
N 2981.11 93.47969999999999 118.839 17537 8769
N 2980.1 93.0209 118.845 17538 8769
N 3021.76 125.795 119.833 17539 8770
N 3021.03 125.899 118.994 17540 8770
N 3161.46 119.732 122.472 17541 8771
N 3162.17 119.396 121.676 17542 8771
N 3072.02 130.841 96.6204 17543 8772
N 3071.8 130.418 95.6071 17544 8772
N 3093.16 137.75 90.57129999999999 17545 8773
N 3093.13 137.347 89.52679999999999 17546 8773
N 2872.66 49.5403 33.7924 17547 8774
N 2873.77 49.6279 33.8644 17548 8774
N 2997.62 124.761 51.8872 17549 8775
N 2998.4 124.593 51.1042 17550 8775
N 3022.29 48.187 113.133 17551 8776
N 3022.02 48.5468 112.107 17552 8776
N 2681.91 51.7061 111.06 17553 8777
N 2681.12 52.1216 110.388 17554 8777
N 3219.52 6.72649 75.92610000000001 17555 8778
N 3219.56 7.13329 76.9768 17556 8778
N 3222.7 116.124 51.6111 17557 8779
N 3223.6 116.272 52.2455 17558 8779
N 2509.45 11.8946 113.086 17559 8780
N 2510.04 12.665 112.53 17560 8780
N 3211.81 82.0394 20.0672 17561 8781
N 3212.34 81.6846 20.9841 17562 8781
N 3190.48 4.99637 145.664 17563 8782
N 3191.51 5.37931 145.473 17564 8782
N 2939.47 73.3383 68.64960000000001 17565 8783
N 2940.35 73.02849999999999 69.2955 17566 8783
N 3099.74 81.7556 100.608 17567 8784
N 3100.57 81.4829 101.318 17568 8784
N 2942.15 52.7162 108.809 17569 8785
N 2942.68 52.2236 109.662 17570 8785
N 2949.35 4.1019 31.3733 17571 8786
N 2949.55 4.44831 30.3286 17572 8786
N 2863.31 61.491 148.704 17573 8787
N 2863.83 61.9822 147.85 17574 8787
N 3126.3 46.1304 102.697 17575 8788
N 3126.34 46.6769 103.665 17576 8788
N 3223.83 11.9107 38.6947 17577 8789
N 3223.6 12.9949 38.8833 17578 8789
N 3036.52 125.064 1.40297 17579 8790
N 3037.29 124.733 0.6627420000000001 17580 8790
N 3122.32 101.129 93.5091 17581 8791
N 3121.62 101.131 94.3674 17582 8791
N 3195.01 118.713 137.347 17583 8792
N 3194.15 119.221 137.9 17584 8792
N 3074.4 14.8986 120.892 17585 8793
N 3074.23 14.5993 119.829 17586 8793
N 3231.33 30.3233 147.928 17587 8794
N 3232.27 30.3705 148.55 17588 8794
N 3204.18 10.7189 34.6008 17589 8795
N 3203.58 10.7218 33.6645 17590 8795
N 3001.7 15.3309 115.006 17591 8796
N 3000.88 15.8738 115.548 17592 8796
N 3157.93 114.938 16.2618 17593 8797
N 3157.53 113.905 16.4104 17594 8797
N 3044.85 43.9195 0.345932 17595 8798
N 3045.52 43.2164 149.774 17596 8798
N 3104.08 137.899 127.473 17597 8799
N 3105.17 137.867 127.19 17598 8799
N 2989.5 123.823 145.978 17599 8800
N 2989.14 124.887 146.014 17600 8800
C 1360.25 63.6046 71.9439 17601 8801
C 1359.32 62.4867 72.4286 17602 8801
H 1361.26 63.2997 71.6752 17603 8801
H 1359.51 64.2038 71.3124 17604 8801
H 1360.18 64.3553 72.6664 17605 8801
C 1357.97 62.5467 73.3075 17606 8801
H 1359.2 61.8078 71.56699999999999 17607 8801
H 1360.05 62.0158 73.0775 17608 8801
C 1357.36 63.9341 73.7055 17609 8801
H 1357.26 61.7973 72.8605 17610 8801
H 1357.88 61.8154 74.1172 17611 8801
C 1358.25 64.8548 74.63200000000001 17612 8801
H 1357.26 64.399 72.8729 17613 8801
H 1356.32 63.8233 74.0956 17614 8801
C 1358.38 66.06699999999999 73.7359 17615 8801
H 1358.11 64.4298 75.6161 17616 8801
H 1359.34 64.3442 75.09739999999999 17617 8801
C 1359.14 67.3883 74.4532 17618 8801
H 1358.94 65.9952 72.73090000000001 17619 8801
H 1357.46 66.42400000000001 73.4126 17620 8801
C 1358.55 68.06910000000001 75.7713 17621 8801
H 1360.25 67.5013 74.3141 17622 8801
H 1358.78 68.22410000000001 73.8155 17623 8801
C 1357.8 69.41719999999999 75.86360000000001 17624 8801
H 1357.8 67.3827 76.2706 17625 8801
H 1359.27 68.19 76.5677 17626 8801
C 1356.34 69.1793 76.72320000000001 17627 8801
H 1358.26 70.342 76.1952 17628 8801
H 1357.07 69.4851 75.0026 17629 8801
C 1356.44 69.7364 78.0651 17630 8801
H 1355.54 69.8413 76.1674 17631 8801
H 1355.76 68.29989999999999 76.5865 17632 8801
C 1356.91 69.065 79.2766 17633 8801
H 1356.87 70.66419999999999 78.28700000000001 17634 8801
H 1355.37 69.742 78.28019999999999 17635 8801
H 1356.01 68.6592 80.0149 17636 8801
H 1357.51 68.035 78.8865 17637 8801
H 1357.47 69.8511 79.97110000000001 17638 8801
C 1358.84 43.0802 51.6382 17639 8802
C 1358.11 44.1137 50.922 17640 8802
H 1358.92 42.0249 51.0647 17641 8802
H 1359.81 43.498 51.8925 17642 8802
H 1358.69 43.025 52.7322 17643 8802
C 1358.74 45.2213 49.8935 17644 8802
H 1357.03 43.8351 50.4873 17645 8802
H 1357.76 44.7964 51.7741 17646 8802
C 1357.75 46.3423 49.513 17647 8802
H 1359.62 45.4413 50.3685 17648 8802
H 1359.17 44.8613 48.7851 17649 8802
C 1358.59 46.6669 48.1379 17650 8802
H 1356.84 45.7898 49.4717 17651 8802
H 1357.87 47.2608 50.2527 17652 8802
C 1359.95 47.3797 48.1333 17653 8802
H 1358.68 45.8937 47.2692 17654 8802
H 1357.74 47.2391 47.7535 17655 8802
C 1360.98 46.9355 46.8961 17656 8802
H 1359.62 48.3983 48.1221 17657 8802
H 1360.74 47.3421 48.8534 17658 8802
C 1362.19 47.8355 46.4128 17659 8802
H 1361.24 45.8257 47.1101 17660 8802
H 1360.37 47.1055 46.0004 17661 8802
C 1363.52 47.3081 46.5423 17662 8802
H 1362.42 47.5893 45.2086 17663 8802
H 1362.15 48.8499 46.8164 17664 8802
C 1364.74 48.2237 46.7799 17665 8802
H 1363.5 46.517 47.3593 17666 8802
H 1363.6 46.71 45.5787 17667 8802
C 1365.69 48.1204 48.049 17668 8802
H 1365.43 48.2933 45.8395 17669 8802
H 1364.36 49.2391 46.9093 17670 8802
C 1364.82 47.8525 49.1665 17671 8802
H 1366.43 47.3109 47.8291 17672 8802
H 1366.46 49.0503 48.2616 17673 8802
H 1364.62 46.7639 49.3181 17674 8802
H 1365.51 47.8966 49.949 17675 8802
H 1364.02 48.4488 49.3106 17676 8802
C 1387 24.0144 2.36912 17677 8803
C 1386.89 25.0803 1.22238 17678 8803
H 1386.25 23.2597 2.3438 17679 8803
H 1388.1 23.6727 2.49234 17680 8803
H 1386.94 24.5511 3.28018 17681 8803
C 1387.47 26.4688 1.43006 17682 8803
H 1387.27 24.6574 0.230153 17683 8803
H 1385.78 25.0983 1.24785 17684 8803
C 1386.33 27.3426 1.12487 17685 8803
H 1387.75 26.4642 2.39982 17686 8803
H 1388.54 26.646 0.790525 17687 8803
C 1385.38 28.253 1.9243 17688 8803
H 1386.94 28.3225 0.67178 17689 8803
H 1385.9 27.2435 0.157743 17690 8803
C 1385.44 29.4694 1.11277 17691 8803
H 1384.27 27.9183 2.00391 17692 8803
H 1385.52 28.5003 3.14734 17693 8803
C 1385.06 30.7005 1.99852 17694 8803
H 1386.14 29.9114 0.568474 17695 8803
H 1384.74 29.3965 0.403094 17696 8803
C 1384.6 31.9464 1.11162 17697 8803
H 1384.25 30.229 2.58855 17698 8803
H 1385.82 30.951 2.78043 17699 8803
C 1384.86 32.1342 149.548 17700 8803
H 1383.69 32.1594 1.39487 17701 8803
H 1385.02 32.654 1.82897 17702 8803
C 1384.23 33.4166 148.828 17703 8803
H 1385.94 31.931 149.24 17704 8803
H 1384.66 31.174 149.111 17705 8803
C 1384.64 34.075 147.396 17706 8803
H 1383.19 33.2593 148.995 17707 8803
H 1384.4 34.2446 149.41 17708 8803
C 1386.1 33.7633 147.516 17709 8803
H 1384.26 33.6454 146.435 17710 8803
H 1384.36 35.0004 147.638 17711 8803
H 1386.2 32.9913 146.865 17712 8803
H 1386.86 34.625 147.517 17713 8803
H 1386.16 33.4276 148.63 17714 8803
C 1351.83 76.31659999999999 71.7625 17715 8804
C 1350.34 76.3845 71.3899 17716 8804
H 1352.06 77.19750000000001 71.2124 17717 8804
H 1352.02 76.4166 72.9648 17718 8804
H 1352.09 75.4735 71.0029 17719 8804
C 1350.09 77.2949 70.31140000000001 17720 8804
H 1349.73 75.3892 71.0956 17721 8804
H 1349.6 76.4426 72.31870000000001 17722 8804
C 1350.48 76.64409999999999 68.982 17723 8804
H 1349.04 77.38639999999999 70.2149 17724 8804
H 1350.19 78.33450000000001 70.3048 17725 8804
C 1349.45 77.2094 67.79640000000001 17726 8804
H 1351.7 76.9041 68.9688 17727 8804
H 1350.54 75.53879999999999 69.422 17728 8804
C 1350.12 77.998 66.5981 17729 8804
H 1349.13 76.3052 67.3411 17730 8804
H 1348.64 77.89239999999999 68.3394 17731 8804
C 1351.15 79.1041 66.9396 17732 8804
H 1350.81 76.77589999999999 66.0962 17733 8804
H 1349.28 78.38200000000001 66.0673 17734 8804
C 1352.1 79.14409999999999 68.2071 17735 8804
H 1352.14 78.762 66.42100000000001 17736 8804
H 1350.6 80.0384 66.52079999999999 17737 8804
C 1353.32 80.04989999999999 67.9816 17738 8804
H 1351.55 79.16030000000001 69.1168 17739 8804
H 1352.47 78.2362 68.8389 17740 8804
C 1354.64 79.604 67.44759999999999 17741 8804
H 1353.09 80.9242 67.2443 17742 8804
H 1353.34 80.4483 69.04900000000001 17743 8804
C 1355.85 79.37139999999999 68.53530000000001 17744 8804
H 1354.59 78.71259999999999 66.77849999999999 17745 8804
H 1355.07 80.0519 66.5658 17746 8804
C 1355.32 77.9319 69.0852 17747 8804
H 1356.94 79.43510000000001 68.2099 17748 8804
H 1355.61 79.9329 69.3173 17749 8804
H 1355.38 77.13939999999999 68.3391 17750 8804
H 1356.11 77.63200000000001 69.8614 17751 8804
H 1354.36 78.21729999999999 69.96769999999999 17752 8804
C 1346.65 32.7198 45.7172 17753 8805
C 1347.33 33.4435 44.3467 17754 8805
H 1346.16 31.8509 45.4618 17755 8805
H 1347.55 32.6786 46.5127 17756 8805
H 1345.84 33.5076 46.1126 17757 8805
C 1346.51 34.3485 43.5322 17758 8805
H 1348.38 33.7283 44.3753 17759 8805
H 1347.48 32.6245 43.4686 17760 8805
C 1347.01 35.6479 43.1135 17761 8805
H 1346.87 33.9831 42.2489 17762 8805
H 1345.44 34.1596 43.4432 17763 8805
C 1345.96 36.6522 42.6984 17764 8805
H 1347.45 35.9602 43.9334 17765 8805
H 1347.83 35.6813 42.2997 17766 8805
C 1346.19 38.3003 42.7807 17767 8805
H 1346.1 36.3537 41.6794 17768 8805
H 1345 36.7425 43.2386 17769 8805
C 1345.27 38.8576 43.8623 17770 8805
H 1347.22 38.5532 43.0175 17771 8805
H 1346.06 38.8546 41.8755 17772 8805
C 1344.21 40.0022 43.3138 17773 8805
H 1344.8 38.0495 44.2244 17774 8805
H 1345.78 39.4025 44.798 17775 8805
C 1344.52 41.5497 43.3033 17776 8805
H 1343.82 39.5072 42.3853 17777 8805
H 1343.25 40.2225 43.9384 17778 8805
C 1345.64 42.2174 42.4666 17779 8805
H 1343.63 42.1023 43.0304 17780 8805
H 1344.81 41.4269 44.4976 17781 8805
C 1346.11 41.3544 41.2029 17782 8805
H 1345.48 43.0664 42.0386 17783 8805
H 1346.66 42.2513 43.0997 17784 8805
C 1346.88 42.0935 40.1557 17785 8805
H 1346.79 40.4049 41.5071 17786 8805
H 1345.17 41.1175 40.8763 17787 8805
H 1347.86 41.8518 40.0001 17788 8805
H 1346.39 41.8927 39.2426 17789 8805
H 1346.53 43.1525 40.1756 17790 8805
C 1346.61 30.7853 81.4699 17791 8806
C 1347.76 30.0726 82.2144 17792 8806
H 1346.17 29.8599 80.9485 17793 8806
H 1345.7 30.9594 82.0938 17794 8806
H 1346.83 31.7868 81.0984 17795 8806
C 1348.14 30.3336 83.5855 17796 8806
H 1347.63 29.0394 82.00700000000001 17797 8806
H 1348.68 30.0003 81.4652 17798 8806
C 1349.83 30.2103 83.646 17799 8806
H 1348.08 31.2031 84.1472 17800 8806
H 1347.78 29.5564 83.9888 17801 8806
C 1350.4 28.9996 84.3814 17802 8806
H 1350.25 30.3996 82.5097 17803 8806
H 1350.52 31.0911 83.9464 17804 8806
C 1351.32 27.4014 80.6283 17805 8807
H 1350.24 28.0414 84.1002 17806 8806
H 1350.84 29.2422 85.3891 17807 8806
C 1351.88 26.1798 81.2628 17808 8807
H 1351.73 28.3851 80.8275 17809 8807
H 1350.25 27.6031 80.2984 17810 8807
C 1350.74 25.2081 82.13679999999999 17811 8807
H 1352.67 25.8285 80.4139 17812 8807
H 1352.72 26.4752 81.96169999999999 17813 8807
C 1349.73 24.3613 81.4444 17814 8807
H 1351.35 25.111 82.9712 17815 8807
H 1350.21 26.1055 82.37130000000001 17816 8807
C 1348.91 23.7176 82.91160000000001 17817 8807
H 1349.29 25.1458 80.8848 17818 8807
H 1350.48 23.9121 80.7157 17819 8807
C 1347.68 23.1614 83.4631 17820 8807
H 1349.41 22.8388 83.2428 17821 8807
H 1349.37 24.5303 83.5324 17822 8807
C 1346.47 23.0354 82.5535 17823 8807
H 1347.94 22.067 83.6388 17824 8807
H 1347.5 24.0976 84.21810000000001 17825 8807
H 1346.66 22.1122 82.13979999999999 17826 8807
H 1345.48 23.2039 83.2869 17827 8807
H 1346.14 23.574 81.6024 17828 8807
C 1445.38 28.8345 48.73 17829 8808
C 1446.12 27.9291 47.5992 17830 8808
H 1444.22 28.8371 48.7981 17831 8808
H 1445.98 29.0912 49.7431 17832 8808
H 1445.37 29.7885 48.1619 17833 8808
C 1446.61 26.5499 48.1534 17834 8808
H 1445.29 27.7747 46.8002 17835 8808
H 1446.91 28.481 47.148 17836 8808
C 1448.04 26.1644 47.7237 17837 8808
H 1446.49 26.5011 49.3067 17838 8808
H 1445.71 25.9325 48.0546 17839 8808
C 1448.84 24.816 47.3028 17840 8808
H 1448.45 26.8642 47.115 17841 8808
H 1448.46 26.2602 48.7166 17842 8808
C 1448.1 24.0874 46.1547 17843 8808
H 1449.93 25.2428 46.9684 17844 8808
H 1448.71 24.286 48.2025 17845 8808
C 1447.96 24.9564 44.903 17846 8808
H 1448.7 23.0556 45.7736 17847 8808
H 1447.13 23.9176 46.5354 17848 8808
C 1447.6 24.5912 43.3813 17849 8808
H 1447.77 25.9926 45.2121 17850 8808
H 1448.93 25.4324 44.5113 17851 8808
C 1446.84 25.1224 42.1441 17852 8808
H 1448.63 25.1447 43.1633 17853 8808
H 1448.03 23.5117 43.4222 17854 8808
C 1447.94 25.4189 41.0693 17855 8808
H 1446.07 24.2962 42.0478 17856 8808
H 1446.12 25.9446 42.2409 17857 8808
C 1448.54 24.0106 40.8183 17858 8808
H 1447.49 25.6245 39.9674 17859 8808
H 1448.73 26.2766 40.9421 17860 8808
C 1448.26 23.1275 39.5764 17861 8808
H 1449.61 24.3964 40.3895 17862 8808
H 1449.31 23.5212 41.5903 17863 8808
H 1447.16 23.0582 39.2576 17864 8808
H 1448.25 23.5371 38.5883 17865 8808
H 1448.64 22.0791 39.9395 17866 8808
C 1501.39 101.239 23.5748 17867 8809
C 1502.21 100.886 22.2474 17868 8809
H 1500.95 102.321 23.7382 17869 8809
H 1500.63 100.384 23.7663 17870 8809
H 1502.06 100.845 24.3823 17871 8809
C 1503.57 101.487 21.9051 17872 8809
H 1502.77 99.8544 22.2435 17873 8809
H 1501.48 100.757 21.3929 17874 8809
C 1503.83 101.136 20.3817 17875 8809
H 1503.69 102.529 21.6804 17876 8809
H 1504.15 100.962 22.76 17877 8809
C 1502.45 100.837 19.3904 17878 8809
H 1504.26 101.95 19.9392 17879 8809
H 1504.3 100.255 20.4341 17880 8809
C 1502.68 101.166 17.839 17881 8809
H 1502.26 99.8415 19.1331 17882 8809
H 1501.47 101.217 19.8477 17883 8809
C 1501.44 100.346 17.0935 17884 8809
H 1503.04 102.152 17.7616 17885 8809
H 1503.33 100.592 17.2727 17886 8809
C 1500.44 100.67 15.9475 17887 8809
H 1501.92 99.4427 16.5652 17888 8809
H 1500.94 99.5813 17.762 17889 8809
C 1501.31 101.055 14.6099 17890 8809
H 1499.5 99.9599 15.6019 17891 8809
H 1499.89 101.546 16.2093 17892 8809
C 1500.63 100.522 13.3461 17893 8809
H 1501.39 102.11 14.4876 17894 8809
H 1502.23 100.574 14.6936 17895 8809
C 1500.11 98.9753 13.3408 17896 8809
H 1499.97 101.22 12.7654 17897 8809
H 1501.2 100.77 12.3874 17898 8809
C 1501.05 97.9281 13.8719 17899 8809
H 1499.21 98.81619999999999 13.9147 17900 8809
H 1499.83 98.6468 12.2665 17901 8809
H 1501.08 96.80110000000001 13.7684 17902 8809
H 1502.04 98.15179999999999 13.145 17903 8809
H 1501.69 97.94759999999999 14.8378 17904 8809
C 1455.86 19.5071 109.706 17905 8810
C 1454.52 19.0066 110.501 17906 8810
H 1455.66 19.6848 108.604 17907 8810
H 1456.63 20.0836 110.377 17908 8810
H 1456.63 18.8307 109.27 17909 8810
C 1453.65 20.2192 111.044 17910 8810
H 1453.89 18.2465 109.966 17911 8810
H 1454.76 18.587 111.566 17912 8810
C 1454.59 21.3493 111.543 17913 8810
H 1453.18 20.6935 110.257 17914 8810
H 1452.57 19.9802 111.328 17915 8810
C 1454.66 21.5786 113.223 17916 8810
H 1455.64 21.0941 111.148 17917 8810
H 1454.01 22.2358 111.156 17918 8810
C 1454.41 20.2943 114.132 17919 8810
H 1455.75 21.895 113.409 17920 8810
H 1453.99 22.5127 113.383 17921 8810
C 1454.13 20.8574 115.514 17922 8810
H 1453.63 19.4203 113.849 17923 8810
H 1455.23 19.4666 114.022 17924 8810
C 1454.82 19.6225 116.582 17925 8810
H 1454.45 21.8605 115.752 17926 8810
H 1453.08 21.2035 115.693 17927 8810
C 1453.77 18.4903 116.703 17928 8810
H 1455.67 19.1513 116.079 17929 8810
H 1455.19 20.2016 117.452 17930 8810
C 1452.22 18.4896 117.107 17931 8810
H 1453.62 18.2134 115.562 17932 8810
H 1453.78 17.5303 117.235 17933 8810
C 1451.87 18.9472 118.549 17934 8810
H 1451.52 18.9352 116.201 17935 8810
H 1451.83 17.6014 116.931 17936 8810
C 1452.99 18.257 119.409 17937 8810
H 1451.8 20.1253 118.901 17938 8810
H 1450.86 18.627 118.866 17939 8810
H 1453.84 18.4975 120.11 17940 8810
H 1452.39 17.7381 120.169 17941 8810
H 1453.21 17.2934 118.964 17942 8810
C 1461.68 79.2718 18.4529 17943 8811
C 1463.2 79.80929999999999 18.3652 17944 8811
H 1460.85 79.67149999999999 19.0979 17945 8811
H 1461.3 79.3407 17.3059 17946 8811
H 1461.82 78.232 18.5392 17947 8811
C 1464.29 79.50579999999999 19.3471 17948 8811
H 1463.48 79.50020000000001 17.3854 17949 8811
H 1463.27 80.7869 17.8742 17950 8811
C 1465.45 78.4572 19.577 17951 8811
H 1464.57 80.5262 19.6288 17952 8811
H 1463.78 79.4177 20.4134 17953 8811
C 1466.18 77.26909999999999 18.8917 17954 8811
H 1466.37 79.06959999999999 19.7298 17955 8811
H 1465.27 78.0552 20.5678 17956 8811
C 1465.38 76.69280000000001 17.5968 17957 8811
H 1467.12 77.6814 18.4891 17958 8811
H 1466.28 76.3429 19.6358 17959 8811
C 1466.04 77.68680000000001 16.4771 17960 8811
H 1465.71 75.5187 17.358 17961 8811
H 1464.35 76.80410000000001 17.7093 17962 8811
C 1465.47 77.03579999999999 15.151 17963 8811
H 1465.62 78.65179999999999 16.9725 17964 8811
H 1467.27 77.8446 16.6685 17965 8811
C 1463.82 76.69840000000001 14.9057 17966 8811
H 1465.84 77.36579999999999 14.1333 17967 8811
H 1466.04 76.3343 15.2074 17968 8811
C 1463 78.0594 15.0081 17969 8811
H 1463.65 76.1795 14.0341 17970 8811
H 1463.31 75.8077 15.4385 17971 8811
C 1463.93 79.0792 14.3596 17972 8811
H 1461.95 78.0188 14.6039 17973 8811
H 1462.69 78.31870000000001 15.9637 17974 8811
C 1462.89 80.2556 14.4642 17975 8811
H 1464.71 79.49299999999999 14.9661 17976 8811
H 1464.32 79.0295 13.3819 17977 8811
H 1463.05 80.8763 13.5561 17978 8811
H 1461.8 80.5247 14.0571 17979 8811
H 1463.18 80.5936 15.3466 17980 8811
C 1362.19 118.196 102.4 17981 8812
C 1362.41 119.651 102.135 17982 8812
H 1363.1 117.627 102.333 17983 8812
H 1362.07 117.921 103.566 17984 8812
H 1361.54 117.73 101.643 17985 8812
C 1361.21 120.557 101.644 17986 8812
H 1362.73 119.967 103.273 17987 8812
H 1363.3 119.625 101.393 17988 8812
C 1360.75 120.368 100.175 17989 8812
H 1360.66 120.463 102.647 17990 8812
H 1361.55 121.501 101.857 17991 8812
C 1360.77 118.717 99.8663 17992 8812
H 1359.69 120.837 100.227 17993 8812
H 1360.94 121.139 99.4408 17994 8812
C 1361.53 118.414 98.5274 17995 8812
H 1361.53 117.837 100.25 17996 8812
H 1359.78 118.197 99.98399999999999 17997 8812
C 1360.69 118.569 97.25109999999999 17998 8812
H 1361.85 117.398 98.9648 17999 8812
H 1362.23 119.373 98.0274 18000 8812
C 1361.13 118.643 95.6742 18001 8812
H 1360.18 117.514 97.3477 18002 8812
H 1359.89 119.243 97.5857 18003 8812
C 1362.33 119.748 95.9452 18004 8812
H 1361.42 117.822 95.184 18005 8812
H 1360.31 119.375 95.3922 18006 8812
C 1362.88 119.91 94.5224 18007 8812
H 1361.61 120.699 96.27800000000001 18008 8812
H 1363.27 119.206 96.212 18009 8812
C 1363.04 121.543 94.4932 18010 8812
H 1362.37 119.106 93.6486 18011 8812
H 1363.99 119.78 94.572 18012 8812
C 1361.72 122.436 94.40470000000001 18013 8812
H 1363.31 121.547 95.6289 18014 8812
H 1364.07 121.674 94.2084 18015 8812
H 1361.37 121.799 95.2076 18016 8812
H 1361.2 122.39 93.596 18017 8812
H 1362.01 123.528 94.29940000000001 18018 8812
C 1382.12 126.57 63.4164 18019 8813
C 1381.1 125.848 62.433 18020 8813
H 1382.98 127.135 62.9221 18021 8813
H 1381.45 127.484 63.6652 18022 8813
H 1382.44 125.83 64.1983 18023 8813
C 1380.86 126.843 61.2248 18024 8813
H 1381.46 124.865 62.4085 18025 8813
H 1380.26 125.481 63.014 18026 8813
C 1381.64 126.819 60.0516 18027 8813
H 1379.78 126.543 61.3333 18028 8813
H 1381.19 127.801 61.6948 18029 8813
C 1381.35 127.519 58.5753 18030 8813
H 1382.49 127.387 60.2103 18031 8813
H 1381.9 125.79 59.8201 18032 8813
C 1380.84 126.613 57.3775 18033 8813
H 1380.69 128.233 58.4716 18034 8813
H 1382.13 127.992 58.1887 18035 8813
C 1380.57 124.98 57.3061 18036 8813
H 1379.91 127.181 57.2473 18037 8813
H 1381.24 126.824 56.3837 18038 8813
C 1379.84 124.892 56.1536 18039 8813
H 1381.43 124.407 57.3731 18040 8813
H 1380 124.739 58.0539 18041 8813
C 1379.74 123.718 54.952 18042 8813
H 1378.67 125.148 56.5245 18043 8813
H 1379.64 125.662 55.4866 18044 8813
C 1380.97 123.732 53.8844 18045 8813
H 1379.7 122.697 55.1452 18046 8813
H 1378.73 123.897 54.4184 18047 8813
C 1381.2 124.868 52.8508 18048 8813
H 1381.84 123.408 54.4865 18049 8813
H 1380.55 122.73 53.3716 18050 8813
C 1381.82 124.351 51.419 18051 8813
H 1380.12 124.984 52.6524 18052 8813
H 1382.05 125.374 53.3767 18053 8813
H 1382.11 125.2 50.9788 18054 8813
H 1382.99 123.889 51.4658 18055 8813
H 1381.54 123.469 50.8318 18056 8813
C 1356.1 66.80540000000001 116.893 18057 8814
C 1356.88 67.501 115.744 18058 8814
H 1355.17 67.5029 117.447 18059 8814
H 1355.92 65.735 116.743 18060 8814
H 1356.79 66.5026 117.852 18061 8814
C 1357.56 68.8035 116.262 18062 8814
H 1357.75 66.8862 115.518 18063 8814
H 1356.4 67.7212 114.707 18064 8814
C 1356.6 70.1362 116.015 18065 8814
H 1357.53 68.7988 117.296 18066 8814
H 1358.53 69.19289999999999 116.022 18067 8814
C 1355.26 70.40470000000001 116.677 18068 8814
H 1357.16 71.0286 116.018 18069 8814
H 1356.12 70.0016 115.052 18070 8814
C 1354.41 71.536 116.174 18071 8814
H 1354.67 69.8171 117.309 18072 8814
H 1355.69 70.6298 117.679 18073 8814
C 1352.99 71.1966 115.557 18074 8814
H 1354.15 72.1934 117.092 18075 8814
H 1355.02 72.28660000000001 115.454 18076 8814
C 1352.53 69.68519999999999 115.469 18077 8814
H 1352.19 71.85760000000001 115.935 18078 8814
H 1352.68 71.5714 114.538 18079 8814
C 1353.66 68.6708 114.998 18080 8814
H 1352.27 69.4134 116.635 18081 8814
H 1351.53 69.3257 114.868 18082 8814
C 1352.86 67.7136 114.053 18083 8814
H 1354.55 69.008 114.391 18084 8814
H 1354.17 68.0759 115.769 18085 8814
C 1353.73 66.5271 113.343 18086 8814
H 1352.11 67.0466 114.69 18087 8814
H 1352.33 68.3184 113.254 18088 8814
C 1352.46 65.9584 112.606 18089 8814
H 1354.47 66.8535 112.602 18090 8814
H 1354.29 65.5741 113.843 18091 8814
H 1351.75 65.2175 113.231 18092 8814
H 1351.57 66.5215 112.361 18093 8814
H 1352.61 65.1866 111.805 18094 8814
C 1356.14 22.8295 125.48 18095 8815
C 1357.53 23.5792 125.575 18096 8815
H 1355.56 23.2196 124.583 18097 8815
H 1356.27 21.7952 125.744 18098 8815
H 1355.38 23.2866 126.013 18099 8815
C 1357.83 24.4402 124.315 18100 8815
H 1357.7 24.3899 126.487 18101 8815
H 1358.04 22.7857 125.767 18102 8815
C 1356.78 25.522 123.76 18103 8815
H 1359.11 24.7174 124.098 18104 8815
H 1357.95 23.8099 123.522 18105 8815
C 1357.56 25.942 122.342 18106 8815
H 1355.77 25.0939 123.613 18107 8815
H 1356.58 26.3847 124.205 18108 8815
C 1358.54 27.2565 122.196 18109 8815
H 1358.32 25.2395 122.052 18110 8815
H 1356.82 26.0586 121.506 18111 8815
C 1359.96 26.6987 122.135 18112 8815
H 1358.35 27.9098 121.354 18113 8815
H 1358.4 27.7659 123.195 18114 8815
C 1360.88 26.2751 123.271 18115 8815
H 1360.12 25.9432 121.266 18116 8815
H 1360.49 27.4839 121.717 18117 8815
C 1361.14 27.0074 124.619 18118 8815
H 1360.53 25.0887 123.534 18119 8815
H 1361.87 26.0885 123.002 18120 8815
C 1361.6 25.995 125.765 18121 8815
H 1361.87 27.9244 124.65 18122 8815
H 1360.24 27.4901 124.887 18123 8815
C 1363.03 25.2736 125.661 18124 8815
H 1361.4 26.5099 126.723 18125 8815
H 1360.83 25.2163 125.864 18126 8815
C 1363.89 26.4 126.396 18127 8815
H 1363.09 24.6264 126.46 18128 8815
H 1363.24 24.7516 124.592 18129 8815
H 1363.74 27.4048 125.691 18130 8815
H 1363.55 26.5144 127.453 18131 8815
H 1364.82 25.9231 126.65 18132 8815
C 1417.24 22.0064 68.23520000000001 18133 8816
C 1417.22 21.4784 66.61660000000001 18134 8816
H 1416.19 21.9803 68.7372 18135 8816
H 1417.6 21.4288 68.9414 18136 8816
H 1417.6 22.8749 68.4686 18137 8816
C 1416.1 20.5403 66.0622 18138 8816
H 1417.44 22.4309 65.9943 18139 8816
H 1418.03 20.764 66.26179999999999 18140 8816
C 1416.4 20.6097 64.4572 18141 8816
H 1416.13 19.6715 66.7462 18142 8816
H 1415.07 21.095 66.009 18143 8816
C 1415.72 19.7646 63.5587 18144 8816
H 1416.45 21.7424 64.1859 18145 8816
H 1417.42 20.2999 64.35599999999999 18146 8816
C 1415.39 18.1809 63.5774 18147 8816
H 1414.59 20.3041 63.5793 18148 8816
H 1415.87 20.1046 62.4124 18149 8816
C 1416.75 17.5911 63.267 18150 8816
H 1415.41 17.8246 64.68819999999999 18151 8816
H 1414.74 17.5771 63.029 18152 8816
C 1417 17.9193 61.8532 18153 8816
H 1417.53 18.1296 63.7769 18154 8816
H 1416.51 16.5607 63.3581 18155 8816
C 1418.51 18.3704 61.1869 18156 8816
H 1416.68 17.0787 61.2324 18157 8816
H 1416.02 18.2982 61.1207 18158 8816
C 1419.5 19.4552 61.5224 18159 8816
H 1419.24 17.4466 61.0795 18160 8816
H 1418.26 18.4512 60.1478 18161 8816
C 1420.19 19.1112 62.8665 18162 8816
H 1420.29 19.5137 60.8319 18163 8816
H 1419.05 20.3634 61.4759 18164 8816
C 1421.81 19.0845 62.3414 18165 8816
H 1419.92 19.761 63.7876 18166 8816
H 1419.69 18.1775 63.2717 18167 8816
H 1421.88 19.9718 61.6623 18168 8816
H 1422.55 19.6086 63.0347 18169 8816
H 1422.17 18.0274 62.0175 18170 8816
C 1392.38 99.9958 130.685 18171 8817
C 1391.41 101.065 131.268 18172 8817
H 1391.76 99.6923 129.857 18173 8817
H 1393.19 100.161 130.067 18174 8817
H 1393.16 99.4623 131.468 18175 8817
C 1392.04 102.525 131.336 18176 8817
H 1390.34 101.135 130.788 18177 8817
H 1391.37 100.747 132.243 18178 8817
C 1391.02 103.809 131.406 18179 8817
H 1392.66 102.941 132.316 18180 8817
H 1392.56 102.906 130.485 18181 8817
C 1390.9 104.011 132.942 18182 8817
H 1391.13 104.55 130.709 18183 8817
H 1390.01 103.815 130.904 18184 8817
C 1390.18 105.423 133.235 18185 8817
H 1390.15 103.433 133.434 18186 8817
H 1391.68 103.69 133.66 18187 8817
C 1390.4 106.059 134.661 18188 8817
H 1390.42 106.126 132.604 18189 8817
H 1389.2 105.29 132.927 18190 8817
C 1389.11 105.658 135.464 18191 8817
H 1391.08 105.756 135.45 18192 8817
H 1390.47 107.215 134.516 18193 8817
C 1388.9 106.72 136.407 18194 8817
H 1388.33 105.162 134.914 18195 8817
H 1389.35 104.622 136.064 18196 8817
C 1387.42 107.087 136.951 18197 8817
H 1389.19 106.441 137.387 18198 8817
H 1389.67 107.412 136.518 18199 8817
C 1386.62 105.77 136.725 18200 8817
H 1387.12 107.632 137.845 18201 8817
H 1386.84 107.77 136.183 18202 8817
C 1385.15 105.964 137.142 18203 8817
H 1386.57 105.354 135.715 18204 8817
H 1387.1 104.936 137.236 18205 8817
H 1384.82 107.029 137.335 18206 8817
H 1384.37 105.928 136.225 18207 8817
H 1384.82 105.495 137.96 18208 8817
C 1377.06 127.582 4.24906 18209 8818
C 1375.92 126.654 4.62068 18210 8818
H 1377.89 127.34 4.78079 18211 8818
H 1377.48 127.472 3.19072 18212 8818
H 1376.85 128.65 4.45642 18213 8818
C 1374.89 125.954 3.64401 18214 8818
H 1376.34 125.71 5.18734 18215 8818
H 1375.25 127.26 5.47377 18216 8818
C 1374.99 124.819 2.5519 18217 8818
H 1373.99 125.644 4.12395 18218 8818
H 1374.19 126.528 2.83294 18219 8818
C 1375.82 123.554 3.11979 18220 8818
H 1374 124.765 2.12901 18221 8818
H 1375.19 124.775 1.41651 18222 8818
C 1376.69 122.797 2.04773 18223 8818
H 1376.52 123.927 3.81734 18224 8818
H 1374.96 123.155 3.87323 18225 8818
C 1376.89 121.29 2.27788 18226 8818
H 1376.24 122.928 1.04452 18227 8818
H 1377.68 123.265 1.79739 18228 8818
C 1378.37 120.831 2.00519 18229 8818
H 1376.23 121.473 3.20776 18230 8818
H 1376.19 120.611 1.84977 18231 8818
C 1379.3 120.387 3.04566 18232 8818
H 1378.66 120.221 1.31925 18233 8818
H 1378.87 121.84 1.85075 18234 8818
C 1380.67 119.56 2.69886 18235 8818
H 1379.27 121.204 3.85544 18236 8818
H 1378.69 119.752 3.7307 18237 8818
C 1380.68 118.295 3.49895 18238 8818
H 1380.84 119.438 1.60475 18239 8818
H 1381.59 120.223 3.10262 18240 8818
C 1381.49 117.282 2.77374 18241 8818
H 1381.33 118.073 4.38415 18242 8818
H 1379.65 117.917 3.59736 18243 8818
H 1381.21 116.202 3.11706 18244 8818
H 1380.9 117.259 1.66102 18245 8818
H 1382.53 117.042 2.67843 18246 8818
C 1384.68 0.0585909 2.15392 18247 8819
C 1386.18 149.801 1.91583 18248 8819
H 1384.16 149.41 1.54267 18249 8819
H 1384.23 149.661 3.11761 18250 8819
H 1384.16 1.04746 1.97625 18251 8819
C 1386.97 148.549 2.14286 18252 8819
H 1386.71 0.506996 1.38672 18253 8819
H 1386.4 0.363221 2.86525 18254 8819
C 1386.32 147.217 2.34298 18255 8819
H 1388 148.409 1.62447 18256 8819
H 1387.64 148.86 3.07595 18257 8819
C 1387.22 145.886 1.86366 18258 8819
H 1386.04 147.047 3.39527 18259 8819
H 1385.2 147.255 1.95084 18260 8819
C 1388.65 145.696 1.35511 18261 8819
H 1387 145.22 2.76144 18262 8819
H 1386.69 145.423 1.20996 18263 8819
C 1389.24 144.577 2.46895 18264 8819
H 1388.68 145.715 0.236324 18265 8819
H 1389.23 146.701 1.4011 18266 8819
C 1389.17 143.15 2.15003 18267 8819
H 1390.32 144.827 2.64579 18268 8819
H 1388.79 144.784 3.38883 18269 8819
C 1390.39 142.359 2.72178 18270 8819
H 1388.22 142.625 2.56629 18271 8819
H 1388.95 143.03 1.14947 18272 8819
C 1389.93 141.204 3.65931 18273 8819
H 1390.82 141.983 1.72852 18274 8819
H 1391.12 143.055 3.21804 18275 8819
C 1390.57 139.74 3.53745 18276 8819
H 1389.95 141.358 4.75377 18277 8819
H 1388.79 141.361 3.76025 18278 8819
C 1389.66 138.817 2.67705 18279 8819
H 1391.48 140.232 2.8547 18280 8819
H 1390.87 139.459 4.51881 18281 8819
H 1390.69 138.178 2.73126 18282 8819
H 1389.01 138.35 3.2915 18283 8819
H 1389.18 139.015 1.75453 18284 8819
C 1350.17 7.11766 109.328 18285 8820
C 1350.14 7.78455 110.81 18286 8820
H 1349.2 7.11532 108.63 18287 8820
H 1351.09 6.9677 108.91 18288 8820
H 1350.05 6.06877 109.364 18289 8820
C 1351.17 6.9678 111.644 18290 8820
H 1350.24 8.82424 110.564 18291 8820
H 1349.09 7.78723 111.116 18292 8820
C 1351.56 5.45452 111.52 18293 8820
H 1352.25 7.44136 111.626 18294 8820
H 1350.8 7.18535 112.614 18295 8820
C 1351.03 4.2772 112.239 18296 8820
H 1351.81 5.09685 110.525 18297 8820
H 1352.49 5.42042 112.021 18298 8820
C 1351.37 2.72316 112.109 18299 8820
H 1351.04 4.53731 113.323 18300 8820
H 1349.89 4.2578 111.902 18301 8820
C 1350.85 1.61181 112.905 18302 8820
H 1351.21 2.68538 111.082 18303 8820
H 1352.49 2.76588 112.228 18304 8820
C 1350.21 1.95769 114.412 18305 8820
H 1350.26 0.92752 112.205 18306 8820
H 1351.4 0.641413 113.007 18307 8820
C 1348.67 2.07765 114.313 18308 8820
H 1350.65 1.0496 114.924 18309 8820
H 1350.63 3.0233 114.76 18310 8820
C 1347.68 1.14098 113.587 18311 8820
H 1348.44 2.74066 115.109 18312 8820
H 1348.35 3.14717 113.738 18313 8820
C 1347.15 1.8483 112.268 18314 8820
H 1348.22 0.186166 113.244 18315 8820
H 1346.75 0.807036 114.05 18316 8820
C 1346 1.06355 111.499 18317 8820
H 1346.9 2.8607 112.479 18318 8820
H 1347.87 1.83955 111.524 18319 8820
H 1345.92 0.029772 111.935 18320 8820
H 1345.23 1.77849 111.337 18321 8820
H 1346.35 0.817427 110.419 18322 8820
C 1351.84 143.058 21.1288 18323 8821
C 1351.54 141.575 21.4407 18324 8821
H 1352.7 142.791 20.4626 18325 8821
H 1350.83 143.501 20.5639 18326 8821
H 1352.06 143.888 21.7909 18327 8821
C 1352.66 140.725 22.0514 18328 8821
H 1350.66 141.48 22.0986 18329 8821
H 1351.27 141.062 20.4759 18330 8821
C 1352.48 139.313 21.477 18331 8821
H 1353.7 141.062 21.6155 18332 8821
H 1352.6 140.936 23.2109 18333 8821
C 1351.05 138.666 21.3001 18334 8821
H 1352.9 139.228 20.5183 18335 8821
H 1353.43 138.735 21.9918 18336 8821
C 1351.25 137.341 20.7594 18337 8821
H 1350.84 138.82 22.3689 18338 8821
H 1350.15 139.187 20.6747 18339 8821
C 1351.48 137.517 19.2124 18340 8821
H 1352.04 136.573 20.9454 18341 8821
H 1350.22 136.838 21.1997 18342 8821
C 1350.02 137.519 18.4641 18343 8821
H 1351.72 138.584 19.1177 18344 8821
H 1352.06 136.696 18.7364 18345 8821
C 1348.77 138.321 19.0434 18346 8821
H 1350.27 137.687 17.4696 18347 8821
H 1349.63 136.472 18.5863 18348 8821
C 1347.4 137.742 18.8082 18349 8821
H 1348.98 138.222 20.0218 18350 8821
H 1348.86 139.373 18.6437 18351 8821
C 1346.49 137.734 19.968 18352 8821
H 1347.1 138.666 18.2299 18353 8821
H 1347.35 136.891 18.1119 18354 8821
C 1345.02 137.466 19.2517 18355 8821
H 1346.68 137.062 20.7769 18356 8821
H 1346.5 138.732 20.5263 18357 8821
H 1344.57 138.418 18.9216 18358 8821
H 1344.9 136.632 18.647 18359 8821
H 1344.38 136.942 19.8826 18360 8821
C 1365.59 81.23650000000001 144.965 18361 8822
C 1366.13 81.3284 146.381 18362 8822
H 1364.59 80.69629999999999 144.794 18363 8822
H 1365.63 82.254 144.533 18364 8822
H 1366.12 80.6193 144.225 18365 8822
C 1367.56 81.95310000000001 146.289 18366 8822
H 1365.52 82.0925 146.924 18367 8822
H 1366.03 80.4641 147.006 18368 8822
C 1368.51 81.4528 147.485 18369 8822
H 1368.04 81.377 145.517 18370 8822
H 1367.49 82.988 145.761 18371 8822
C 1368.29 81.8472 149.025 18372 8822
H 1368.73 80.23269999999999 147.457 18373 8822
H 1369.56 81.75620000000001 147.403 18374 8822
C 1369.15 83.053 149.454 18375 8822
H 1367.17 81.9145 149.134 18376 8822
H 1368.37 81.0134 149.713 18377 8822
C 1368.73 84.26000000000001 148.69 18378 8822
H 1368.93 83.0859 0.475925 18379 8822
H 1370.35 82.795 149.44 18380 8822
C 1369.97 84.9443 147.914 18381 8822
H 1367.98 83.95950000000001 147.885 18382 8822
H 1368.32 85.0271 149.324 18383 8822
C 1369.73 86.4695 147.777 18384 8822
H 1370.88 84.8505 148.489 18385 8822
H 1370.06 84.6028 146.856 18386 8822
C 1370.97 87.4289 147.184 18387 8822
H 1368.89 86.639 147.2 18388 8822
H 1369.15 87.0431 148.521 18389 8822
C 1370.4 87.62869999999999 145.747 18390 8822
H 1371.09 88.3715 147.553 18391 8822
H 1371.98 87.01990000000001 147.01 18392 8822
C 1369.28 88.8558 145.707 18393 8822
H 1371.21 87.86960000000001 145.104 18394 8822
H 1369.94 86.7424 145.186 18395 8822
H 1368.18 88.4967 145.408 18396 8822
H 1369.52 89.4496 146.6 18397 8822
H 1369.57 89.5188 144.935 18398 8822
C 1362.6 74.97239999999999 122.705 18399 8823
C 1361.57 74.84480000000001 121.631 18400 8823
H 1363.27 74.03660000000001 122.848 18401 8823
H 1363.54 75.6545 122.501 18402 8823
H 1362.53 75.5496 123.64 18403 8823
C 1360.1 74.2791 122.088 18404 8823
H 1361.14 75.7869 121.145 18405 8823
H 1361.71 74.1433 120.888 18406 8823
C 1360.3 73.0337 122.971 18407 8823
H 1359.93 75.05410000000001 122.997 18408 8823
H 1359.37 74.2239 121.217 18409 8823
C 1359.02 72.03870000000001 122.96 18410 8823
H 1361.15 72.48820000000001 122.587 18411 8823
H 1360.52 73.2004 124.078 18412 8823
C 1359.26 70.59480000000001 122.349 18413 8823
H 1358.26 72.16970000000001 123.795 18414 8823
H 1358.27 72.64490000000001 122.359 18415 8823
C 1357.73 70.2508 121.941 18416 8823
H 1359.99 70.5864 121.576 18417 8823
H 1359.7 69.8077 122.962 18418 8823
C 1357.04 69.2367 122.801 18419 8823
H 1357.23 71.16379999999999 121.967 18420 8823
H 1357.41 69.9914 120.989 18421 8823
C 1357.09 69.6429 124.259 18422 8823
H 1356.01 69.1729 122.475 18423 8823
H 1357.43 68.0367 122.635 18424 8823
C 1356.3 68.55889999999999 125.097 18425 8823
H 1358.09 69.8005 124.815 18426 8823
H 1356.7 70.71429999999999 124.378 18427 8823
C 1354.99 69.0217 125.583 18428 8823
H 1356.17 67.6529 124.394 18429 8823
H 1356.98 68.2315 125.885 18430 8823
C 1355.51 69.3049 127.088 18431 8823
H 1354.63 70.00069999999999 125.122 18432 8823
H 1354.23 68.22669999999999 125.399 18433 8823
H 1355.61 68.3399 127.598 18434 8823
H 1356.45 69.46129999999999 127.517 18435 8823
H 1354.97 69.98309999999999 127.564 18436 8823
C 1384.31 10.3562 31.6853 18437 8824
C 1384.43 11.0678 30.322 18438 8824
H 1384.29 11.2114 32.5557 18439 8824
H 1383.16 10.1063 31.7342 18440 8824
H 1384.76 9.64392 32.2423 18441 8824
C 1385.47 12.2323 30.5631 18442 8824
H 1385.08 10.2543 29.8246 18443 8824
H 1383.24 11.3015 29.9659 18444 8824
C 1386.82 11.799 29.7422 18445 8824
H 1384.92 13.0858 30.2351 18446 8824
H 1385.36 12.1128 31.6093 18447 8824
C 1387.46 12.9706 28.9747 18448 8824
H 1387.48 11.3093 30.335 18449 8824
H 1386.52 10.98 28.8931 18450 8824
C 1389 12.7003 28.2944 18451 8824
H 1386.69 13.2381 28.3126 18452 8824
H 1387.53 13.7974 29.6615 18453 8824
C 1389.13 13.9961 27.6275 18454 8824
H 1389.91 12.6619 28.7731 18455 8824
H 1388.93 11.7858 27.7082 18456 8824
C 1390.48 14.6256 27.5079 18457 8824
H 1388.32 14.2287 26.8932 18458 8824
H 1388.34 14.6233 28.2444 18459 8824
C 1391.39 14.2818 26.1858 18460 8824
H 1390.53 15.7711 27.3413 18461 8824
H 1391.15 14.2622 28.3763 18462 8824
C 1392.58 15.0011 26.6504 18463 8824
H 1391.24 13.1288 26.3009 18464 8824
H 1390.86 14.6784 25.4038 18465 8824
C 1393.88 14.7277 25.9087 18466 8824
H 1392.48 15.9753 27.1407 18467 8824
H 1392.66 14.5291 27.789 18468 8824
C 1394.13 13.2641 25.3504 18469 8824
H 1394.15 15.3406 25.0307 18470 8824
H 1394.81 14.8119 26.5531 18471 8824
H 1394.08 12.984 24.2421 18472 8824
H 1395.22 12.7662 25.5687 18473 8824
H 1393.38 12.521 25.9463 18474 8824
C 1356.4 115.374 120.62 18475 8825
C 1355.12 114.612 121.269 18476 8825
H 1356.67 116.328 119.945 18477 8825
H 1357.27 115.451 121.4 18478 8825
H 1356.89 114.587 120.146 18479 8825
C 1354.72 113.156 121.69 18480 8825
H 1354.69 115.315 121.965 18481 8825
H 1354.42 114.615 120.249 18482 8825
C 1354.88 112.449 120.127 18483 8825
H 1355.4 112.81 122.411 18484 8825
H 1353.64 113.242 122.008 18485 8825
C 1356.48 112.241 120.05 18486 8825
H 1354.23 111.63 119.842 18487 8825
H 1354.6 112.988 119.203 18488 8825
C 1357.34 111.669 121.258 18489 8825
H 1356.33 111.626 119.087 18490 8825
H 1356.96 113.134 119.789 18491 8825
C 1358.01 110.324 120.878 18492 8825
H 1357.96 112.414 121.795 18493 8825
H 1356.66 111.406 122.096 18494 8825
C 1359.31 110.077 120.198 18495 8825
H 1357.78 109.519 121.592 18496 8825
H 1357.5 110.204 119.942 18497 8825
C 1360.4 110.326 121.213 18498 8825
H 1359.12 109.062 119.593 18499 8825
H 1359.64 110.785 119.478 18500 8825
C 1360.41 109.693 122.443 18501 8825
H 1361.24 109.817 120.795 18502 8825
H 1360.95 111.36 120.929 18503 8825
C 1359.72 110.287 123.826 18504 8825
H 1360.1 108.739 122.133 18505 8825
H 1361.36 109.688 122.835 18506 8825
C 1359.65 111.771 124.291 18507 8825
H 1358.59 110.249 123.709 18508 8825
H 1360.26 109.616 124.545 18509 8825
H 1360.77 111.853 124.324 18510 8825
H 1359.55 112.585 123.679 18511 8825
H 1359.09 111.595 125.2 18512 8825
C 1393.38 6.31593 108.742 18513 8826
C 1391.96 6.73072 108.155 18514 8826
H 1393.67 5.30517 108.371 18515 8826
H 1394.18 7.11503 108.842 18516 8826
H 1393.01 5.74124 109.736 18517 8826
C 1391.19 5.3441 108.126 18518 8826
H 1391.53 7.46437 108.713 18519 8826
H 1391.88 7.26765 107.124 18520 8826
C 1391.2 4.73067 106.693 18521 8826
H 1391.53 4.53554 108.982 18522 8826
H 1390.13 5.66821 108.395 18523 8826
C 1389.67 4.93092 106.113 18524 8826
H 1391.93 5.09796 106.062 18525 8826
H 1391.76 3.84437 106.626 18526 8826
C 1389.42 4.83533 104.646 18527 8826
H 1389.22 3.98425 106.634 18528 8826
H 1389 5.39132 106.911 18529 8826
C 1390.52 5.31256 103.668 18530 8826
H 1389.14 3.92071 104.166 18531 8826
H 1388.62 5.57991 104.494 18532 8826
C 1391.08 4.38487 102.564 18533 8826
H 1390.26 6.32177 103.225 18534 8826
H 1391.71 5.62905 104.062 18535 8826
C 1390 3.99944 101.59 18536 8826
H 1391.93 4.8986 102.043 18537 8826
H 1391.72 3.5701 103.03 18538 8826
C 1389.5 2.6243 102.316 18539 8826
H 1389.15 4.82937 101.38 18540 8826
H 1390.57 3.98978 100.618 18541 8826
C 1388.81 1.84677 101.154 18542 8826
H 1390.32 1.97524 102.873 18543 8826
H 1388.85 2.88056 103.197 18544 8826
C 1388.51 0.667419 102.178 18545 8826
H 1387.88 2.26236 100.761 18546 8826
H 1389.18 1.73784 100.155 18547 8826
H 1387.49 0.799167 102.597 18548 8826
H 1388.51 149.779 101.571 18549 8826
H 1389.43 0.687365 102.85 18550 8826
C 1357.71 121.582 70.5266 18551 8827
C 1356.51 122.13 69.6576 18552 8827
H 1358.66 121.968 70.1112 18553 8827
H 1357.7 122.013 71.5108 18554 8827
H 1357.9 120.533 70.68470000000001 18555 8827
C 1355.55 123.243 70.1589 18556 8827
H 1357.32 122.619 68.95650000000001 18557 8827
H 1355.76 121.422 69.36239999999999 18558 8827
C 1354.17 122.828 70.8464 18559 8827
H 1356.08 124.251 70.3995 18560 8827
H 1355.3 123.561 69.1854 18561 8827
C 1353.23 123.897 71.5027 18562 8827
H 1353.3 122.634 70.1495 18563 8827
H 1354.48 121.993 71.54470000000001 18564 8827
C 1352.07 123.518 72.4871 18565 8827
H 1354.01 124.384 72.10899999999999 18566 8827
H 1352.89 124.648 70.756 18567 8827
C 1350.56 123.572 72.0005 18568 8827
H 1352.02 122.501 73.0331 18569 8827
H 1352.14 124.186 73.25749999999999 18570 8827
C 1349.89 124.214 73.33580000000001 18571 8827
H 1350.34 124.067 71.1395 18572 8827
H 1350.17 122.641 71.63120000000001 18573 8827
C 1348.9 125.273 72.6811 18574 8827
H 1349.24 123.454 73.7021 18575 8827
H 1350.73 124.625 73.9883 18576 8827
C 1348.17 124.952 71.4029 18577 8827
H 1348.26 125.67 73.38639999999999 18578 8827
H 1349.54 126.043 72.3961 18579 8827
C 1346.64 124.701 71.566 18580 8827
H 1348.31 125.763 70.7456 18581 8827
H 1348.54 123.932 70.8582 18582 8827
C 1345.95 126.007 71.3244 18583 8827
H 1346.27 124.1 70.7497 18584 8827
H 1346.38 124.285 72.5548 18585 8827
H 1346.29 126.436 70.3843 18586 8827
H 1344.81 125.934 71.33029999999999 18587 8827
H 1346.3 126.77 72.1755 18588 8827
C 1351.88 92.85339999999999 77.0201 18589 8828
C 1351.17 92.18810000000001 78.0423 18590 8828
H 1351.18 93.6827 76.7379 18591 8828
H 1352.68 93.5622 77.3415 18592 8828
H 1352.28 92.3822 76.1326 18593 8828
C 1351.1 92.9526 79.53749999999999 18594 8828
H 1350.08 91.99039999999999 77.71639999999999 18595 8828
H 1351.66 91.20529999999999 77.98909999999999 18596 8828
C 1349.98 93.9068 79.2573 18597 8828
H 1351.18 92.432 80.4669 18598 8828
H 1351.92 93.60509999999999 79.75490000000001 18599 8828
C 1348.29 93.50230000000001 79.1691 18600 8828
H 1349.96 94.8689 79.8201 18601 8828
H 1350.19 94.4841 78.36839999999999 18602 8828
C 1347.37 94.5376 78.8865 18603 8828
H 1348.18 92.79300000000001 78.2684 18604 8828
H 1347.99 92.76779999999999 80.053 18605 8828
C 1345.85 94.21259999999999 79.16970000000001 18606 8828
H 1347.83 95.42230000000001 79.5031 18607 8828
H 1347.53 94.88890000000001 77.78700000000001 18608 8828
C 1345.02 93.7144 77.9237 18609 8828
H 1345.94 93.2255 79.59829999999999 18610 8828
H 1345.15 94.84780000000001 79.8908 18611 8828
C 1345.83 93.4246 76.71729999999999 18612 8828
H 1344.46 92.8562 78.1143 18613 8828
H 1344.2 94.557 77.9554 18614 8828
C 1344.83 93.3413 75.4387 18615 8828
H 1346.72 94.02719999999999 76.5823 18616 8828
H 1346.42 92.4247 76.86790000000001 18617 8828
C 1345.25 94.52419999999999 74.58069999999999 18618 8828
H 1345.11 92.3661 74.97620000000001 18619 8828
H 1343.86 92.934 75.9335 18620 8828
C 1344.35 94.9456 73.5501 18621 8828
H 1345.42 95.551 75.172 18622 8828
H 1346.11 94.1885 73.9962 18623 8828
H 1344.92 95.71040000000001 72.9782 18624 8828
H 1344.06 94.10429999999999 72.89960000000001 18625 8828
H 1343.54 95.6686 73.79170000000001 18626 8828
C 1358.74 40.0495 70.2739 18627 8829
C 1358.8 41.1084 71.3552 18628 8829
H 1358.83 39.0411 70.5371 18629 8829
H 1357.68 39.739 70.1921 18630 8829
H 1359.48 39.8302 69.5673 18631 8829
C 1357.7 42.0037 70.9269 18632 8829
H 1359.03 40.8427 72.43640000000001 18633 8829
H 1359.74 41.5666 71.3165 18634 8829
C 1357.55 42.9259 72.21680000000001 18635 8829
H 1357.66 42.4106 69.9037 18636 8829
H 1356.79 41.3059 70.80500000000001 18637 8829
C 1357.09 42.2315 73.5381 18638 8829
H 1358.65 43.1513 72.06359999999999 18639 8829
H 1356.99 43.6576 71.86060000000001 18640 8829
C 1356.34 43.1674 74.5359 18641 8829
H 1356.67 41.2594 73.41800000000001 18642 8829
H 1357.96 41.6889 74.02 18643 8829
C 1357.5 43.8835 75.3096 18644 8829
H 1355.43 43.7213 74.05719999999999 18645 8829
H 1355.8 42.8152 75.45740000000001 18646 8829
C 1357.36 45.4071 75.80119999999999 18647 8829
H 1357.94 43.2965 76.2593 18648 8829
H 1358.35 43.5941 74.7754 18649 8829
C 1357.36 46.3455 74.6532 18650 8829
H 1356.63 45.7165 76.5634 18651 8829
H 1358.34 45.367 76.2242 18652 8829
C 1355.74 46.5282 74.13039999999999 18653 8829
H 1357.96 47.1631 74.9543 18654 8829
H 1358.04 45.9765 73.66589999999999 18655 8829
C 1355.27 47.6098 73.2764 18656 8829
H 1355.49 45.6489 73.4156 18657 8829
H 1354.94 46.7424 74.7403 18658 8829
C 1353.76 47.9102 73.2039 18659 8829
H 1355.7 48.599 73.7373 18660 8829
H 1355.61 47.6031 72.20059999999999 18661 8829
H 1353.36 48.7053 72.575 18662 8829
H 1353.25 46.9761 72.9361 18663 8829
H 1353.34 48.2238 74.23090000000001 18664 8829
C 1391.83 144.164 23.2934 18665 8830
C 1393.05 143.826 24.1859 18666 8830
H 1390.88 144.057 23.7209 18667 8830
H 1391.98 145.135 22.9686 18668 8830
H 1391.71 143.507 22.4245 18669 8830
C 1393.16 142.252 24.3272 18670 8830
H 1393.9 144.466 23.9149 18671 8830
H 1392.94 144.108 25.232 18672 8830
C 1394.37 141.311 23.7467 18673 8830
H 1393.34 142.006 25.4615 18674 8830
H 1392.16 141.93 24.0862 18675 8830
C 1394.57 141.599 22.257 18676 8830
H 1395.36 141.631 24.3517 18677 8830
H 1394.48 140.223 23.9064 18678 8830
C 1393.41 141.55 21.1652 18679 8830
H 1394.91 142.704 22.1272 18680 8830
H 1395.44 141.049 21.8229 18681 8830
C 1392.71 140.555 20.1707 18682 8830
H 1392.59 142.144 21.5551 18683 8830
H 1393.73 142.498 20.6669 18684 8830
C 1393.47 139.647 19.2111 18685 8830
H 1392.24 139.929 20.8462 18686 8830
H 1392.03 141.178 19.4618 18687 8830
C 1393.28 140.095 17.7567 18688 8830
H 1394.59 139.646 19.1777 18689 8830
H 1393.33 138.434 19.2734 18690 8830
C 1393.29 138.75 16.9588 18691 8830
H 1392.4 140.724 17.5764 18692 8830
H 1394.09 140.826 17.5191 18693 8830
C 1391.95 138.629 16.1214 18694 8830
H 1394.23 138.814 16.3957 18695 8830
H 1393.61 137.792 17.5011 18696 8830
C 1390.57 138.76 16.9615 18697 8830
H 1391.8 139.524 15.576 18698 8830
H 1391.83 137.864 15.3801 18699 8830
H 1390.23 137.943 17.5564 18700 8830
H 1390.93 139.474 17.5866 18701 8830
H 1389.63 139.111 16.438 18702 8830
C 1352.61 73.1827 10.1636 18703 8831
C 1351.94 74.571 10.5553 18704 8831
H 1353.61 73.31319999999999 10.2912 18705 8831
H 1352.2 72.17310000000001 10.422 18706 8831
H 1352.45 72.93040000000001 9.111129999999999 18707 8831
C 1351.66 74.96259999999999 12.0842 18708 8831
H 1352.78 75.1033 10.1165 18709 8831
H 1351.08 74.6803 9.84041 18710 8831
C 1351.57 76.42870000000001 12.4489 18711 8831
H 1351.06 74.2521 12.6669 18712 8831
H 1352.58 74.7273 12.5459 18713 8831
C 1350.09 76.74550000000001 12.5189 18714 8831
H 1352.02 76.6966 13.3256 18715 8831
H 1352.09 77.023 11.6162 18716 8831
C 1349.45 77.0039 13.9855 18717 8831
H 1349.98 77.7038 11.8268 18718 8831
H 1349.45 76.0809 11.9025 18719 8831
C 1350.49 77.768 15.0041 18720 8831
H 1348.59 77.621 13.926 18721 8831
H 1348.86 76.0835 14.3983 18722 8831
C 1351.6 78.87739999999999 14.7829 18723 8831
H 1349.65 77.9217 15.7104 18724 8831
H 1350.84 76.9423 15.6704 18725 8831
C 1351.12 80.0958 15.6436 18726 8831
H 1352.73 78.682 14.8492 18727 8831
H 1351.58 79.4346 13.8582 18728 8831
C 1351.69 81.48220000000001 15.686 18729 8831
H 1350.01 80.2921 15.702 18730 8831
H 1351.52 79.76909999999999 16.5938 18731 8831
C 1350.56 82.7555 15.6637 18732 8831
H 1352.48 81.4709 16.4478 18733 8831
H 1352.25 81.8021 14.8335 18734 8831
C 1349.83 82.6229 16.8795 18735 8831
H 1351.02 83.727 15.3989 18736 8831
H 1349.78 82.7671 14.8642 18737 8831
H 1349.11 81.8549 17.0191 18738 8831
H 1350.47 82.4016 17.7944 18739 8831
H 1349.14 83.41249999999999 17.1122 18740 8831
C 1343.29 97.0236 1.38939 18741 8832
C 1344.34 97.7264 2.51767 18742 8832
H 1343.29 97.33759999999999 0.291287 18743 8832
H 1343.45 95.9349 1.43881 18744 8832
H 1342.24 97.43429999999999 1.50454 18745 8832
C 1345.66 98.321 1.72095 18746 8832
H 1343.9 98.53400000000001 3.08442 18747 8832
H 1344.69 97.0343 3.30989 18748 8832
C 1346.63 97.5506 0.751244 18749 8832
H 1345.25 99.2576 1.15264 18750 8832
H 1346.1 99.0697 2.28196 18751 8832
C 1345.8 96.1906 0.450733 18752 8832
H 1346.9 98.14400000000001 149.917 18753 8832
H 1347.67 97.2129 1.23772 18754 8832
C 1346.1 95.00830000000001 149.456 18755 8832
H 1345.69 95.4862 1.30364 18756 8832
H 1344.9 96.7792 0.0355121 18757 8832
C 1345.7 95.1782 147.933 18758 8832
H 1347.13 94.6514 149.481 18759 8832
H 1345.43 94.1456 149.795 18760 8832
C 1346.02 96.52030000000001 147.08 18761 8832
H 1346.23 94.36369999999999 147.402 18762 8832
H 1344.62 95.0444 147.661 18763 8832
C 1347.45 97.0981 146.86 18764 8832
H 1345.52 96.4392 146.136 18765 8832
H 1345.33 97.2647 147.604 18766 8832
C 1348.52 96.3329 147.707 18767 8832
H 1347.75 96.827 145.885 18768 8832
H 1347.58 98.21850000000001 147.015 18769 8832
C 1349.95 96.93389999999999 147.597 18770 8832
H 1348.24 96.3993 148.766 18771 8832
H 1348.54 95.24590000000001 147.275 18772 8832
C 1350 97.77200000000001 148.816 18773 8832
H 1350.77 96.10080000000001 147.807 18774 8832
H 1349.97 97.6728 146.79 18775 8832
H 1349.71 97.2722 149.718 18776 8832
H 1351.06 98.0936 148.874 18777 8832
H 1349.27 98.6865 148.768 18778 8832
C 1393.78 28.9403 117.763 18779 8833
C 1395.06 29.3087 116.973 18780 8833
H 1393.54 27.7279 117.61 18781 8833
H 1393.64 29.6248 118.623 18782 8833
H 1392.87 29.4237 117.277 18783 8833
C 1396.52 28.8381 117.668 18784 8833
H 1394.77 28.855 116.111 18785 8833
H 1394.71 30.2615 116.492 18786 8833
C 1397.38 28.4817 116.369 18787 8833
H 1397.28 29.4571 118.038 18788 8833
H 1396.28 28.0314 118.399 18789 8833
C 1397.22 26.9466 115.988 18790 8833
H 1397.16 29.0694 115.435 18791 8833
H 1398.55 28.7228 116.411 18792 8833
C 1395.77 26.6112 115.456 18793 8833
H 1398 26.5144 115.3 18794 8833
H 1397.2 26.5184 116.9 18795 8833
C 1395.54 27.1287 113.987 18796 8833
H 1395.78 25.4634 115.333 18797 8833
H 1394.93 26.985 115.988 18798 8833
C 1394.45 26.3471 113.122 18799 8833
H 1395.38 28.3005 114.038 18800 8833
H 1396.48 27.0179 113.573 18801 8833
C 1393.48 26.9475 112.061 18802 8833
H 1395.2 25.7201 112.927 18803 8833
H 1393.86 25.5349 113.724 18804 8833
C 1392.47 27.993 112.8 18805 8833
H 1393.96 27.4869 111.339 18806 8833
H 1392.9 26.0445 111.645 18807 8833
C 1391.09 27.5494 113.248 18808 8833
H 1393.06 28.3197 113.598 18809 8833
H 1392.55 29.0349 112.227 18810 8833
C 1391.42 26.9246 114.617 18811 8833
H 1390.52 28.4333 113.126 18812 8833
H 1390.69 26.8104 112.503 18813 8833
H 1392.03 27.6444 115.24 18814 8833
H 1390.64 26.5347 115.28 18815 8833
H 1392.25 26.1413 114.667 18816 8833
C 1373.34 87.13979999999999 40.2751 18817 8834
C 1373.14 85.8276 39.4523 18818 8834
H 1373.48 87.9396 39.5166 18819 8834
H 1372.51 87.53740000000001 41.0073 18820 8834
H 1374.42 87.12220000000001 40.6742 18821 8834
C 1372.21 84.7714 39.9853 18822 8834
H 1372.96 86.0839 38.3842 18823 8834
H 1374.03 85.4301 39.0866 18824 8834
C 1371.15 84.0753 38.9183 18825 8834
H 1372.55 84.1195 40.5991 18826 8834
H 1371.41 85.2933 40.5488 18827 8834
C 1370.19 83.28879999999999 39.8225 18828 8834
H 1370.5 84.6694 38.2171 18829 8834
H 1371.8 83.5645 38.3091 18830 8834
C 1370.92 81.851 39.8798 18831 8834
H 1370.34 83.54859999999999 40.8879 18832 8834
H 1369.09 83.60809999999999 39.6214 18833 8834
C 1369.76 81.181 39.145 18834 8834
H 1372.02 81.9727 39.4724 18835 8834
H 1371.1 81.4798 41.0072 18836 8834
C 1369.44 79.55459999999999 39.0017 18837 8834
H 1368.8 81.68859999999999 39.4812 18838 8834
H 1369.69 81.5592 37.973 18839 8834
C 1368.1 79.35980000000001 39.7076 18840 8834
H 1369.87 79.31010000000001 37.9375 18841 8834
H 1370.14 78.9517 39.5979 18842 8834
C 1367.8 77.96769999999999 39.2063 18843 8834
H 1367.85 79.6636 40.8365 18844 8834
H 1367.33 80.1152 39.353 18845 8834
C 1366.29 77.5973 39.5952 18846 8834
H 1368.03 77.94750000000001 38.1397 18847 8834
H 1368.45 77.1653 39.5635 18848 8834
C 1365 76.9581 38.999 18849 8834
H 1366.38 76.5611 40.0509 18850 8834
H 1366.11 77.9911 40.6464 18851 8834
H 1363.97 77.51220000000001 38.6969 18852 8834
H 1365 76.22199999999999 38.1834 18853 8834
H 1364.39 76.3304 39.67 18854 8834
C 1350.11 11.8639 94.42740000000001 18855 8835
C 1351.58 11.4795 94.6553 18856 8835
H 1350.1 12.6232 93.6096 18857 8835
H 1349.78 10.8987 93.9674 18858 8835
H 1349.52 12.3495 95.13249999999999 18859 8835
C 1351.95 10.2305 95.4978 18860 8835
H 1352.14 11.3285 93.6722 18861 8835
H 1352.14 12.4241 94.84739999999999 18862 8835
C 1353.42 9.78002 94.9299 18863 8835
H 1351.7 10.3284 96.5322 18864 8835
H 1351.21 9.38927 95.1564 18865 8835
C 1353.97 8.57329 95.77809999999999 18866 8835
H 1353.49 9.26623 93.8813 18867 8835
H 1354.29 10.5246 94.95359999999999 18868 8835
C 1353.76 8.312989999999999 97.2936 18869 8835
H 1353.74 7.62079 95.2617 18870 8835
H 1355.06 8.59717 95.4706 18871 8835
C 1354.77 7.34368 97.9988 18872 8835
H 1353.82 9.38772 97.80929999999999 18873 8835
H 1352.71 7.84853 97.3886 18874 8835
C 1356.24 7.05904 97.57599999999999 18875 8835
H 1354.84 7.46311 99.07429999999999 18876 8835
H 1354.36 6.31533 98.09950000000001 18877 8835
C 1357.1 6.6042 98.72580000000001 18878 8835
H 1356.27 6.31528 96.68429999999999 18879 8835
H 1356.6 8.01266 97.1858 18880 8835
C 1358.21 7.69645 99.1866 18881 8835
H 1356.4 6.36486 99.6122 18882 8835
H 1357.51 5.58122 98.4088 18883 8835
C 1359.5 7.68895 98.3849 18884 8835
H 1358.03 8.708 99.3377 18885 8835
H 1358.5 7.36473 100.234 18886 8835
C 1360.01 6.15706 97.92319999999999 18887 8835
H 1359.39 8.41868 97.53019999999999 18888 8835
H 1360.33 8.058999999999999 99.0033 18889 8835
H 1359.3 5.65667 97.2153 18890 8835
H 1360.86 6.14949 97.3321 18891 8835
H 1360.09 5.32639 98.7577 18892 8835
C 1346.44 147.923 53.4364 18893 8836
C 1347.32 146.694 53.0374 18894 8836
H 1347.12 148.853 53.6516 18895 8836
H 1346 148.312 52.5583 18896 8836
H 1345.96 147.571 54.3087 18897 8836
C 1347.04 145.239 53.3499 18898 8836
H 1347.72 147.015 52.1069 18899 8836
H 1348.2 146.769 53.6636 18900 8836
C 1345.9 144.542 52.5588 18901 8836
H 1347.86 144.463 53.3255 18902 8836
H 1346.7 145.526 54.3431 18903 8836
C 1346.69 143.893 51.3099 18904 8836
H 1345.22 143.87 53.0765 18905 8836
H 1345.25 145.274 52.1761 18906 8836
C 1347.14 142.408 51.7787 18907 8836
H 1346.12 143.803 50.3646 18908 8836
H 1347.53 144.513 50.9546 18909 8836
C 1345.95 141.437 51.26 18910 8836
H 1348.04 141.862 51.338 18911 8836
H 1347.31 142.186 52.8165 18912 8836
C 1345.88 140.16 52.2751 18913 8836
H 1345 142.046 51.2975 18914 8836
H 1346.02 141.292 50.0946 18915 8836
C 1345.87 140.617 53.6795 18916 8836
H 1345.09 139.507 51.8411 18917 8836
H 1346.72 139.547 52.0621 18918 8836
C 1345.3 139.539 54.7213 18919 8836
H 1346.96 140.91 53.8264 18920 8836
H 1345.33 141.477 53.8173 18921 8836
C 1346.04 138.264 55.072 18922 8836
H 1344.89 140.114 55.6048 18923 8836
H 1344.22 139.096 54.5977 18924 8836
C 1345.9 138.112 56.6177 18925 8836
H 1345.71 137.381 54.6074 18926 8836
H 1347.03 138.37 54.8987 18927 8836
H 1345.26 138.949 56.9834 18928 8836
H 1345.75 136.967 56.9033 18929 8836
H 1346.87 138.335 57.1562 18930 8836
C 1379.62 53.9295 115.079 18931 8837
C 1378.27 53.5022 114.593 18932 8837
H 1380.49 53.4795 114.548 18933 8837
H 1379.73 55.0506 114.932 18934 8837
H 1379.62 53.7864 116.184 18935 8837
C 1377.95 53.8836 113.137 18936 8837
H 1378.26 52.4195 114.68 18937 8837
H 1377.5 54.0325 115.286 18938 8837
C 1376.66 54.8534 113.04 18939 8837
H 1378.86 54.4537 112.831 18940 8837
H 1377.91 52.9464 112.481 18941 8837
C 1376.23 55.1863 111.543 18942 8837
H 1375.93 54.415 113.577 18943 8837
H 1376.94 55.7787 113.59 18944 8837
C 1374.87 54.8032 110.935 18945 8837
H 1376.5 56.2265 111.33 18946 8837
H 1377.02 54.5819 110.916 18947 8837
C 1374.52 53.3251 110.673 18948 8837
H 1374.09 55.2294 111.428 18949 8837
H 1374.83 55.2989 110.006 18950 8837
C 1375.59 52.6428 109.751 18951 8837
H 1374.29 52.8522 111.625 18952 8837
H 1373.6 53.2438 110.173 18953 8837
C 1376.36 51.3428 110.284 18954 8837
H 1375.16 52.3647 108.795 18955 8837
H 1376.25 53.4046 109.425 18956 8837
C 1377.02 50.5455 109.151 18957 8837
H 1377.09 51.4886 111.051 18958 8837
H 1375.63 50.7198 110.819 18959 8837
C 1377.79 49.3138 109.702 18960 8837
H 1376.21 50.0387 108.614 18961 8837
H 1377.83 51.1706 108.535 18962 8837
C 1378.62 48.4163 108.697 18963 8837
H 1378.53 49.7124 110.444 18964 8837
H 1377.11 48.5579 110.211 18965 8837
H 1379.44 47.8746 109.215 18966 8837
H 1378.02 47.5329 108.39 18967 8837
H 1379.09 48.8556 107.8 18968 8837
C 1346.33 81.60769999999999 108.985 18969 8838
C 1346.94 81.0925 110.278 18970 8838
H 1346.55 80.8753 108.206 18971 8838
H 1345.29 81.7449 109.006 18972 8838
H 1346.8 82.4053 108.551 18973 8838
C 1345.96 80.1292 111.147 18974 8838
H 1348 80.9228 110.162 18975 8838
H 1347.03 82.0192 110.892 18976 8838
C 1345.36 78.82940000000001 110.556 18977 8838
H 1346.44 79.9683 112.105 18978 8838
H 1345.14 80.7333 111.523 18979 8838
C 1346.46 77.6246 110.737 18980 8838
H 1344.41 78.55419999999999 111.026 18981 8838
H 1344.98 78.887 109.501 18982 8838
C 1346.29 76.22499999999999 110.157 18983 8838
H 1347.32 78.2269 110.321 18984 8838
H 1346.81 77.46559999999999 111.761 18985 8838
C 1346.88 76.166 108.775 18986 8838
H 1346.78 75.4569 110.771 18987 8838
H 1345.21 75.92 110.059 18988 8838
C 1345.65 76.6416 107.89 18989 8838
H 1347.81 76.7824 108.667 18990 8838
H 1346.98 75.09829999999999 108.684 18991 8838
C 1346.36 77.1088 106.546 18992 8838
H 1344.93 75.8343 107.603 18993 8838
H 1344.95 77.30249999999999 108.292 18994 8838
C 1347.01 75.9973 105.688 18995 8838
H 1345.61 77.6542 106.073 18996 8838
H 1347.01 78.02670000000001 106.769 18997 8838
C 1346.08 75.1198 104.837 18998 8838
H 1347.72 76.5849 104.926 18999 8838
H 1347.85 75.3909 106.289 19000 8838
C 1345.1 75.6082 103.702 19001 8838
H 1346.88 74.3961 104.316 19002 8838
H 1345.7 74.2454 105.406 19003 8838
H 1344.67 76.58839999999999 103.978 19004 8838
H 1345.59 75.77970000000001 102.679 19005 8838
H 1344.31 74.8839 103.327 19006 8838
C 1396.97 6.45855 108.932 19007 8839
C 1397.09 6.45208 107.37 19008 8839
H 1397.59 7.26723 109.499 19009 8839
H 1395.97 6.84161 109.12 19010 8839
H 1396.91 5.53977 109.5 19011 8839
C 1397.39 7.78374 106.525 19012 8839
H 1397.85 5.65596 107.07 19013 8839
H 1396.46 5.73306 106.768 19014 8839
C 1398.43 8.80359 107.201 19015 8839
H 1397.72 7.60037 105.567 19016 8839
H 1396.49 8.369770000000001 106.464 19017 8839
C 1399.77 8.106299999999999 107.545 19018 8839
H 1398.54 9.647460000000001 106.505 19019 8839
H 1398.1 9.260160000000001 108.113 19020 8839
C 1401.04 8.51726 108.461 19021 8839
H 1399.52 6.9403 107.653 19022 8839
H 1400.01 8.16093 106.472 19023 8839
C 1401.94 9.734120000000001 108.086 19024 8839
H 1400.8 8.43572 109.561 19025 8839
H 1401.61 7.58342 108.399 19026 8839
C 1402.86 10.4744 109.068 19027 8839
H 1402.59 9.54425 107.225 19028 8839
H 1401.32 10.5864 107.498 19029 8839
C 1402.48 11.7129 109.871 19030 8839
H 1403.33 9.79529 109.805 19031 8839
H 1403.87 10.5765 108.516 19032 8839
C 1401.39 11.5579 110.918 19033 8839
H 1403.48 12.0029 110.385 19034 8839
H 1402.39 12.6057 109.233 19035 8839
C 1401.77 12.3995 112.259 19036 8839
H 1400.53 12.0879 110.498 19037 8839
H 1400.99 10.5065 111.112 19038 8839
C 1401.94 13.8394 111.873 19039 8839
H 1401.07 12.2004 113.021 19040 8839
H 1402.76 11.9811 112.645 19041 8839
H 1402.62 13.9851 110.984 19042 8839
H 1401.05 14.4484 111.811 19043 8839
H 1402.52 14.3389 112.61 19044 8839
C 1371.83 9.096170000000001 1.35398 19045 8840
C 1372.7 8.417350000000001 2.38095 19046 8840
H 1371.94 8.76919 0.359139 19047 8840
H 1370.83 8.68445 1.59863 19048 8840
H 1371.97 10.1396 1.27894 19049 8840
C 1374.13 8.480320000000001 1.97574 19050 8840
H 1372.55 8.81861 3.4188 19051 8840
H 1372.51 7.30516 2.45143 19052 8840
C 1375.12 7.51286 2.75343 19053 8840
H 1374.02 8.0624 0.956477 19054 8840
H 1374.59 9.52511 2.09543 19055 8840
C 1376.11 8.0244 3.82213 19056 8840
H 1374.57 6.62742 3.11714 19057 8840
H 1375.7 6.90536 2.18902 19058 8840
C 1377.66 8.112579999999999 3.41326 19059 8840
H 1375.93 8.962300000000001 4.17456 19060 8840
H 1375.9 7.29455 4.74984 19061 8840
C 1378.43 9.45937 3.57361 19062 8840
H 1378.34 7.45569 3.96794 19063 8840
H 1377.9 7.58258 2.43874 19064 8840
C 1379.83 9.648999999999999 2.80574 19065 8840
H 1377.69 10.1887 3.33491 19066 8840
H 1378.67 9.64303 4.68924 19067 8840
C 1379.82 10.5139 1.48114 19068 8840
H 1380.7 10.0724 3.3819 19069 8840
H 1380.31 8.66976 2.85144 19070 8840
C 1381.29 11.0597 1.09984 19071 8840
H 1379.47 9.870799999999999 0.68319 19072 8840
H 1379.12 11.3983 1.63827 19073 8840
C 1381.91 10.3037 149.897 19074 8840
H 1381.2 12.0593 0.690925 19075 8840
H 1381.89 11.293 2.03918 19076 8840
C 1383.02 9.244630000000001 0.374438 19077 8840
H 1381.17 9.72458 149.343 19078 8840
H 1382.22 10.9771 149.089 19079 8840
H 1383.4 8.66398 149.43 19080 8840
H 1383.81 9.83863 0.843785 19081 8840
H 1382.5 8.583550000000001 1.01809 19082 8840
C 1405.33 135.714 87.9606 19083 8841
C 1406.16 134.346 88.3693 19084 8841
H 1405.16 136.309 88.874 19085 8841
H 1405.88 136.342 87.2204 19086 8841
H 1404.33 135.649 87.5784 19087 8841
C 1405.11 133.328 88.89530000000001 19088 8841
H 1406.66 133.959 87.50709999999999 19089 8841
H 1406.78 135.01 88.9756 19090 8841
C 1404.21 132.272 88.0488 19091 8841
H 1405.36 132.804 89.75020000000001 19092 8841
H 1404.3 133.924 89.2854 19093 8841
C 1403.54 131.464 89.1512 19094 8841
H 1403.45 132.723 87.38339999999999 19095 8841
H 1404.69 131.765 87.20359999999999 19096 8841
C 1404.25 130.321 89.8841 19097 8841
H 1403.04 132.076 89.8462 19098 8841
H 1402.46 130.977 88.8115 19099 8841
C 1403.76 130.492 91.2544 19100 8841
H 1404.1 129.398 89.4598 19101 8841
H 1405.36 130.291 89.9452 19102 8841
C 1402.61 129.498 91.7963 19103 8841
H 1404.57 130.405 91.92570000000001 19104 8841
H 1403.43 131.507 91.5741 19105 8841
C 1401.17 129.925 92.1354 19106 8841
H 1402.52 128.756 90.8801 19107 8841
H 1402.9 128.782 92.4855 19108 8841
C 1400.3 129.381 90.9419 19109 8841
H 1400.74 129.596 93.1397 19110 8841
H 1401 131.12 92.2514 19111 8841
C 1399.19 130.442 90.8853 19112 8841
H 1400.85 129.243 90.01049999999999 19113 8841
H 1399.76 128.445 91.06310000000001 19114 8841
C 1398.13 130.268 89.7273 19115 8841
H 1398.55 130.36 91.7632 19116 8841
H 1399.65 131.439 90.94289999999999 19117 8841
H 1397.26 130.616 90.0425 19118 8841
H 1398.37 130.853 88.8369 19119 8841
H 1398.04 129.119 89.4323 19120 8841
C 1463.44 92.8335 48.8836 19121 8842
C 1463.54 94.45010000000001 48.768 19122 8842
H 1462.4 92.4954 48.8269 19123 8842
H 1463.95 92.24850000000001 48.2144 19124 8842
H 1463.91 92.5074 49.8431 19125 8842
C 1464.78 95.1999 48.2505 19126 8842
H 1462.73 94.7586 48.1257 19127 8842
H 1463.26 94.89409999999999 49.7974 19128 8842
C 1464.58 96.0384 46.9081 19129 8842
H 1465.2 95.8257 49.0162 19130 8842
H 1465.63 94.4992 48.0681 19131 8842
C 1464.74 95.07340000000001 45.7209 19132 8842
H 1463.56 96.5757 46.9675 19133 8842
H 1465.35 96.82080000000001 46.8061 19134 8842
C 1464.78 95.76000000000001 44.3736 19135 8842
H 1465.74 94.6178 45.9715 19136 8842
H 1464.07 94.19929999999999 45.6378 19137 8842
C 1463.56 96.7069 44.2423 19138 8842
H 1465.75 96.3451 44.1641 19139 8842
H 1464.74 94.9748 43.6115 19140 8842
C 1463.12 96.7578 42.7323 19141 8842
H 1462.63 96.31999999999999 44.8796 19142 8842
H 1463.83 97.75360000000001 44.5721 19143 8842
C 1462.46 98.161 42.5126 19144 8842
H 1463.92 96.63290000000001 42.0754 19145 8842
H 1462.39 95.9791 42.5853 19146 8842
C 1463.09 99.4166 43.2967 19147 8842
H 1462.34 98.43600000000001 41.4631 19148 8842
H 1461.39 98.08029999999999 42.7379 19149 8842
C 1461.91 100.363 43.0747 19150 8842
H 1463.41 99.2535 44.3607 19151 8842
H 1464.01 99.8642 42.8532 19152 8842
C 1461.76 101.899 43.3297 19153 8842
H 1461.58 100.241 41.9828 19154 8842
H 1460.98 100.006 43.5141 19155 8842
H 1461.98 102.577 42.4613 19156 8842
H 1460.79 102.317 43.7076 19157 8842
H 1462.52 102.228 44.0537 19158 8842
C 1366.33 86.4927 72.3515 19159 8843
C 1365.09 87.3779 72.7654 19160 8843
H 1366.11 85.6427 71.79519999999999 19161 8843
H 1367.04 87.05629999999999 71.7846 19162 8843
H 1366.96 86.2313 73.33069999999999 19163 8843
C 1364 87.4726 71.74720000000001 19164 8843
H 1364.54 86.7677 73.5127 19165 8843
H 1365.34 88.2118 73.5176 19166 8843
C 1364.35 87.33880000000001 70.1468 19167 8843
H 1363.24 86.7081 72.1181 19168 8843
H 1363.39 88.376 71.94929999999999 19169 8843
C 1364.15 88.4528 69.14919999999999 19170 8843
H 1365.33 86.8227 70.00409999999999 19171 8843
H 1363.61 86.70529999999999 69.5498 19172 8843
C 1362.68 88.8463 68.94799999999999 19173 8843
H 1364.78 89.2923 69.3062 19174 8843
H 1364.67 87.97199999999999 68.2469 19175 8843
C 1362.36 90.02119999999999 67.88120000000001 19176 8843
H 1362.03 88.0149 68.759 19177 8843
H 1362.29 89.05880000000001 69.9546 19178 8843
C 1363.28 91.1268 68.4012 19179 8843
H 1362.54 89.7345 66.8891 19180 8843
H 1361.25 90.3032 67.9169 19181 8843
C 1364.57 91.7818 67.81910000000001 19182 8843
H 1362.78 92.04989999999999 68.75839999999999 19183 8843
H 1363.59 90.8815 69.47750000000001 19184 8843
C 1364.66 93.0951 66.9443 19185 8843
H 1365.27 91.785 68.6614 19186 8843
H 1365.18 90.9894 67.41289999999999 19187 8843
C 1365.93 93.3043 66.0373 19188 8843
H 1363.71 93.1534 66.3507 19189 8843
H 1364.73 93.98560000000001 67.62050000000001 19190 8843
C 1365.79 94.6721 65.2482 19191 8843
H 1366.78 93.24250000000001 66.652 19192 8843
H 1365.87 92.4808 65.28959999999999 19193 8843
H 1365.08 95.3035 65.8199 19194 8843
H 1366.85 95.0234 65.1542 19195 8843
H 1365.5 94.52460000000001 64.188 19196 8843
C 1522.63 84.9825 141.111 19197 8844
C 1523.25 83.6155 140.923 19198 8844
H 1521.78 85.2821 140.551 19199 8844
H 1522.43 85.1631 142.183 19200 8844
H 1523.54 85.6544 141.195 19201 8844
C 1523.73 83.3419 139.516 19202 8844
H 1524.1 83.54559999999999 141.757 19203 8844
H 1522.45 82.8917 141.326 19204 8844
C 1524.76 82.1491 139.486 19205 8844
H 1523.01 83.27200000000001 138.732 19206 8844
H 1524.28 84.2174 139.15 19207 8844
C 1524.02 81.12739999999999 138.643 19208 8844
H 1525.81 82.2752 139.08 19209 8844
H 1525.09 81.809 140.44 19210 8844
C 1523 80.1867 139.244 19211 8844
H 1523.73 81.6168 137.702 19212 8844
H 1524.87 80.5519 138.247 19213 8844
C 1521.99 79.8078 138.171 19214 8844
H 1523.64 79.4015 139.633 19215 8844
H 1522.6 80.5294 140.203 19216 8844
C 1522.88 78.9307 137.173 19217 8844
H 1521.11 79.19710000000001 138.662 19218 8844
H 1521.55 80.6461 137.639 19219 8844
C 1522.76 77.39660000000001 137.222 19220 8844
H 1522.84 79.13200000000001 136.134 19221 8844
H 1523.96 79.0468 137.644 19222 8844
C 1523.9 76.59310000000001 136.488 19223 8844
H 1522.51 77.1691 138.212 19224 8844
H 1521.81 77.10039999999999 136.762 19225 8844
C 1523.37 75.3391 135.59 19226 8844
H 1524.5 77.2757 135.812 19227 8844
H 1524.7 76.36969999999999 137.207 19228 8844
C 1522.45 74.5641 136.631 19229 8844
H 1522.8 75.7615 134.766 19230 8844
H 1524.22 74.79179999999999 135.267 19231 8844
H 1522.91 73.93210000000001 137.362 19232 8844
H 1521.85 75.21469999999999 137.264 19233 8844
H 1521.72 73.90009999999999 136.177 19234 8844
C 1442.32 66.0727 115.121 19235 8845
C 1442.37 65.31310000000001 113.767 19236 8845
H 1441.44 66.80840000000001 115.302 19237 8845
H 1442.36 65.3266 115.909 19238 8845
H 1443.21 66.69199999999999 115.367 19239 8845
C 1441.76 63.8695 113.894 19240 8845
H 1441.87 65.90309999999999 113 19241 8845
H 1443.47 65.18380000000001 113.381 19242 8845
C 1441.09 63.4014 112.604 19243 8845
H 1442.6 63.1528 114.339 19244 8845
H 1441.12 63.7974 114.744 19245 8845
C 1441.77 63.2133 111.275 19246 8845
H 1440.74 62.3773 112.796 19247 8845
H 1440.08 63.8701 112.48 19248 8845
C 1442.69 61.9388 110.994 19249 8845
H 1441 63.1823 110.454 19250 8845
H 1442.37 64.0735 110.9 19251 8845
C 1444.21 62.1315 110.482 19252 8845
H 1442.57 61.2598 111.864 19253 8845
H 1442.2 61.377 110.236 19254 8845
C 1444.86 63.1422 111.385 19255 8845
H 1444.75 61.2183 110.686 19256 8845
H 1444.25 62.3925 109.434 19257 8845
C 1446.38 63.2167 111.135 19258 8845
H 1444.39 64.1234 111.246 19259 8845
H 1444.72 62.8781 112.446 19260 8845
C 1446.86 63.1093 109.632 19261 8845
H 1446.74 64.18259999999999 111.516 19262 8845
H 1446.87 62.3744 111.707 19263 8845
C 1448.25 63.6585 109.7 19264 8845
H 1446.8 62.1404 109.082 19265 8845
H 1446.17 63.8491 109.008 19266 8845
C 1449.3 62.5849 109.39 19267 8845
H 1448.39 64.6163 109.085 19268 8845
H 1448.37 64.0102 110.732 19269 8845
H 1450.32 62.939 109.373 19270 8845
H 1449.13 61.7509 110.073 19271 8845
H 1449.14 62.0604 108.402 19272 8845
C 1372.55 31.1823 86.89709999999999 19273 8846
C 1371.69 32.3943 87.3819 19274 8846
H 1372.88 30.5037 87.6964 19275 8846
H 1371.94 30.5663 86.2333 19276 8846
H 1373.39 31.3448 86.26600000000001 19277 8846
C 1371.89 33.775 86.7246 19278 8846
H 1370.66 31.96 87.2891 19279 8846
H 1371.66 32.3868 88.5228 19280 8846
C 1371.27 34.6537 87.90049999999999 19281 8846
H 1373.01 33.9665 86.5046 19282 8846
H 1371.28 33.8963 85.7773 19283 8846
C 1371.86 36.079 88.14830000000001 19284 8846
H 1370.12 34.753 87.9278 19285 8846
H 1371.5 34.0201 88.768 19286 8846
C 1370.72 37.0169 87.7748 19287 8846
H 1372.17 36.215 89.23990000000001 19288 8846
H 1372.79 36.3752 87.53579999999999 19289 8846
C 1371.39 38.4372 87.41889999999999 19290 8846
H 1370.29 36.6455 86.8261 19291 8846
H 1369.79 37.0583 88.4183 19292 8846
C 1372.69 38.3555 86.5775 19293 8846
H 1370.64 39.0119 86.9179 19294 8846
H 1371.55 39.1057 88.3545 19295 8846
C 1372.9 39.7181 85.7728 19296 8846
H 1373.72 38.1906 87.07810000000001 19297 8846
H 1372.54 37.3554 86.0166 19298 8846
C 1373.92 39.9346 84.5947 19299 8846
H 1371.86 40.0835 85.42319999999999 19300 8846
H 1373.07 40.4918 86.61150000000001 19301 8846
C 1374.76 41.1551 84.8253 19302 8846
H 1374.47 39.0286 84.3845 19303 8846
H 1373.43 40.1427 83.6112 19304 8846
C 1374.95 42.0647 83.5549 19305 8846
H 1374.59 41.649 85.8028 19306 8846
H 1375.73 40.8825 85.09229999999999 19307 8846
H 1374.84 41.5352 82.6765 19308 8846
H 1374.46 42.9948 83.2941 19309 8846
H 1376.01 42.3262 83.4876 19310 8846
C 1577.49 88.15779999999999 35.1605 19311 8847
C 1576.84 89.1348 36.161 19312 8847
H 1577.19 87.1208 35.3721 19313 8847
H 1577.16 88.43519999999999 34.1569 19314 8847
H 1578.59 88.1306 35.1931 19315 8847
C 1577.21 90.62009999999999 36.0211 19316 8847
H 1575.77 89.0074 36.1294 19317 8847
H 1576.99 88.7599 37.1499 19318 8847
C 1575.92 91.5656 35.9995 19319 8847
H 1577.79 90.93259999999999 36.8578 19320 8847
H 1577.97 90.8141 35.2486 19321 8847
C 1575.41 91.729 34.5765 19322 8847
H 1575.13 91.3352 36.688 19323 8847
H 1576.24 92.57340000000001 36.3525 19324 8847
C 1574.15 92.6159 34.4771 19325 8847
H 1576.17 92.0765 33.9 19326 8847
H 1575.27 90.797 34.1465 19327 8847
C 1573.76 92.9474 33.0318 19328 8847
H 1573.37 92.1482 35.0533 19329 8847
H 1574.46 93.5343 35.068 19330 8847
C 1572.61 93.97199999999999 33.0315 19331 8847
H 1574.68 93.24639999999999 32.52 19332 8847
H 1573.43 92.0431 32.4407 19333 8847
C 1572.87 95.50790000000001 33.2701 19334 8847
H 1572.1 93.8441 32.088 19335 8847
H 1571.74 93.6117 33.6648 19336 8847
C 1571.76 96.15730000000001 34.1005 19337 8847
H 1573.86 95.62909999999999 33.75 19338 8847
H 1573.02 95.9397 32.2699 19339 8847
C 1571.77 97.6525 33.643 19340 8847
H 1570.74 95.74420000000001 33.9032 19341 8847
H 1571.93 96.06440000000001 35.1961 19342 8847
C 1570.37 98.3745 33.803 19343 8847
H 1572.52 98.1662 34.2819 19344 8847
H 1572.04 97.7846 32.6774 19345 8847
H 1569.86 98.1217 34.7349 19346 8847
H 1570.48 99.5034 33.7526 19347 8847
H 1569.75 98.00530000000001 32.9925 19348 8847
C 1513.48 11.6116 97.21980000000001 19349 8848
C 1512.27 11.2341 98.1233 19350 8848
H 1513.17 12.4326 96.5727 19351 8848
H 1514.4 12.1617 97.748 19352 8848
H 1513.78 10.7762 96.5346 19353 8848
C 1511.77 12.2732 99.1198 19354 8848
H 1511.35 10.8875 97.51600000000001 19355 8848
H 1512.6 10.2934 98.5932 19356 8848
C 1510.45 11.8048 99.8661 19357 8848
H 1512.54 12.5043 99.8456 19358 8848
H 1511.54 13.2298 98.6014 19359 8848
C 1509.34 12.4618 99.03189999999999 19360 8848
H 1510.32 10.7528 99.813 19361 8848
H 1510.27 12.2504 100.914 19362 8848
C 1509.04 13.9523 98.71899999999999 19363 8848
H 1509.4 12.0147 98.07210000000001 19364 8848
H 1508.39 12.206 99.4748 19365 8848
C 1507.68 14.0624 97.9957 19366 8848
H 1508.99 14.509 99.70180000000001 19367 8848
H 1509.88 14.4203 98.1266 19368 8848
C 1507.8 14.4909 96.492 19369 8848
H 1507.08 13.1348 98.0468 19370 8848
H 1507.02 14.7895 98.5615 19371 8848
C 1506.57 14.5987 95.73860000000001 19372 8848
H 1508.27 15.5221 96.4859 19373 8848
H 1508.5 13.8535 95.95610000000001 19374 8848
C 1506.78 14.1985 94.1961 19375 8848
H 1505.78 13.926 96.1658 19376 8848
H 1506.08 15.6151 95.8429 19377 8848
C 1505.43 13.7064 93.669 19378 8848
H 1507.21 15 93.57470000000001 19379 8848
H 1507.48 13.3419 94.1593 19380 8848
C 1505.28 13.785 92.1138 19381 8848
H 1505.19 12.6795 93.9748 19382 8848
H 1504.65 14.2945 94.06440000000001 19383 8848
H 1505.94 13.0762 91.4584 19384 8848
H 1504.22 13.6265 91.8775 19385 8848
H 1505.53 14.7393 91.6679 19386 8848
C 1679.69 116.359 86.6528 19387 8849
C 1679.19 117.703 87.2338 19388 8849
H 1680.37 115.879 87.3258 19389 8849
H 1678.89 115.632 86.4512 19390 8849
H 1680.16 116.497 85.66249999999999 19391 8849
C 1679.02 117.596 88.7491 19392 8849
H 1679.89 118.533 87.0248 19393 8849
H 1678.24 117.998 86.73990000000001 19394 8849
C 1678.98 118.971 89.523 19395 8849
H 1678.13 116.995 88.99250000000001 19396 8849
H 1679.82 117.033 89.1511 19397 8849
C 1679.14 118.654 91.03489999999999 19398 8849
H 1679.81 119.661 89.1194 19399 8849
H 1678.09 119.557 89.3082 19400 8849
C 1678 117.836 91.66160000000001 19401 8849
H 1680.07 118.147 91.0836 19402 8849
H 1679.31 119.561 91.6127 19403 8849
C 1678.04 117.479 93.22110000000001 19404 8849
H 1677.05 118.336 91.4301 19405 8849
H 1677.93 116.938 91.0149 19406 8849
C 1676.67 117.376 93.9045 19407 8849
H 1678.68 116.596 93.4623 19408 8849
H 1678.56 118.283 93.7587 19409 8849
C 1676.85 117.246 95.40430000000001 19410 8849
H 1676.06 118.261 93.6356 19411 8849
H 1676.11 116.539 93.4924 19412 8849
C 1675.47 117.474 96.2174 19413 8849
H 1677.28 116.276 95.8082 19414 8849
H 1677.57 117.931 95.8232 19415 8849
C 1675.69 117.504 97.7058 19416 8849
H 1675 118.417 95.914 19417 8849
H 1674.72 116.745 95.9221 19418 8849
C 1674.42 117.472 98.5699 19419 8849
H 1676.35 116.695 97.9858 19420 8849
H 1676.24 118.444 97.8595 19421 8849
H 1673.83 118.421 98.42740000000001 19422 8849
H 1673.65 116.745 98.28919999999999 19423 8849
H 1674.53 117.38 99.70359999999999 19424 8849
C 1655.48 98.1305 5.51362 19425 8850
C 1656.9 98.358 6.19472 19426 8850
H 1654.88 97.49120000000001 6.21664 19427 8850
H 1654.88 99.0538 5.321 19428 8850
H 1655.52 97.5669 4.52637 19429 8850
C 1656.91 98.94159999999999 7.60304 19430 8850
H 1657.41 97.3488 6.19484 19431 8850
H 1657.52 98.95780000000001 5.46812 19432 8850
C 1658.21 98.4551 8.34341 19433 8850
H 1656.92 100.077 7.66325 19434 8850
H 1656.05 98.6349 8.240360000000001 19435 8850
C 1659.57 99.10129999999999 7.91865 19436 8850
H 1658.04 98.56999999999999 9.407120000000001 19437 8850
H 1658.36 97.3681 8.219139999999999 19438 8850
C 1660.81 98.88200000000001 8.743209999999999 19439 8850
H 1659.72 98.82769999999999 6.83798 19440 8850
H 1659.35 100.152 7.67361 19441 8850
C 1662.06 99.3141 7.83002 19442 8850
H 1660.77 99.35680000000001 9.68122 19443 8850
H 1660.93 97.7948 8.96612 19444 8850
C 1663.39 99.5659 8.55897 19445 8850
H 1662.25 98.64019999999999 6.96389 19446 8850
H 1661.75 100.28 7.35417 19447 8850
C 1663.38 99.3717 10.1002 19448 8850
H 1664.17 98.99299999999999 8.05409 19449 8850
H 1663.62 100.666 8.418979999999999 19450 8850
C 1664.79 98.93559999999999 10.6575 19451 8850
H 1663.1 100.356 10.5017 19452 8850
H 1662.56 98.65260000000001 10.2953 19453 8850
C 1665.03 98.76649999999999 12.151 19454 8850
H 1665.04 97.9485 10.2388 19455 8850
H 1665.51 99.6503 10.1965 19456 8850
C 1666.47 98.3034 12.5039 19457 8850
H 1664.81 99.7188 12.6511 19458 8850
H 1664.37 98.0312 12.6135 19459 8850
H 1667.22 98.8212 11.8624 19460 8850
H 1666.82 98.40730000000001 13.5397 19461 8850
H 1666.6 97.2261 12.262 19462 8850
C 1578.9 62.0284 61.4281 19463 8851
C 1578.65 63.5252 61.97 19464 8851
H 1579.9 61.9382 60.9561 19465 8851
H 1578.88 61.3831 62.3055 19466 8851
H 1578.18 61.6496 60.7156 19467 8851
C 1579.59 64.17230000000001 63.0199 19468 8851
H 1578.51 64.24630000000001 61.1182 19469 8851
H 1577.67 63.5263 62.3202 19470 8851
C 1581.08 63.9407 62.9068 19471 8851
H 1579.5 65.26730000000001 62.9908 19472 8851
H 1579.33 63.8573 64.051 19473 8851
C 1581.47 62.6233 63.6193 19474 8851
H 1581.34 63.848 61.8315 19475 8851
H 1581.63 64.86499999999999 63.2943 19476 8851
C 1583.03 62.5537 63.9599 19477 8851
H 1580.92 62.5885 64.5598 19478 8851
H 1581.2 61.8192 62.9358 19479 8851
C 1583.62 61.4472 63.0834 19480 8851
H 1583.53 63.5405 63.6531 19481 8851
H 1583.21 62.3692 65.03870000000001 19482 8851
C 1584.82 60.9862 63.9278 19483 8851
H 1583.02 60.5535 62.9352 19484 8851
H 1583.89 61.772 62.0858 19485 8851
C 1585.58 59.8283 63.1181 19486 8851
H 1585.49 61.8216 64.19410000000001 19487 8851
H 1584.52 60.6638 64.9438 19488 8851
C 1586.91 60.2563 62.4968 19489 8851
H 1585.73 59.0128 63.8003 19490 8851
H 1584.93 59.4111 62.3607 19491 8851
C 1587.84 59.0545 62.2082 19492 8851
H 1586.69 60.9114 61.6644 19493 8851
H 1587.47 60.9726 63.2137 19494 8851
C 1589.19 59.5742 61.6457 19495 8851
H 1587.87 58.448 63.1708 19496 8851
H 1587.42 58.3929 61.3986 19497 8851
H 1589.57 60.3412 62.3207 19498 8851
H 1589.9 58.7145 61.5642 19499 8851
H 1589.09 60.0971 60.6476 19500 8851
C 1637.62 21.8877 82.9618 19501 8852
C 1636.39 22.6945 83.3772 19502 8852
H 1637.48 20.8347 83.2283 19503 8852
H 1637.97 21.9118 81.9079 19504 8852
H 1638.5 22.2071 83.4863 19505 8852
C 1635.09 22.2288 82.7101 19506 8852
H 1636.26 22.7531 84.4796 19507 8852
H 1636.51 23.7426 83.0783 19508 8852
C 1633.84 23.0436 83.1978 19509 8852
H 1635.25 22.3748 81.6267 19510 8852
H 1634.92 21.0888 82.7389 19511 8852
C 1632.7 22.7203 82.1588 19512 8852
H 1633.53 22.6901 84.1831 19513 8852
H 1633.98 24.1399 83.2985 19514 8852
C 1631.24 23.2679 82.5171 19515 8852
H 1633 23.0741 81.1622 19516 8852
H 1632.64 21.6184 81.9969 19517 8852
C 1630.65 22.8652 83.87090000000001 19518 8852
H 1631.37 24.3949 82.53740000000001 19519 8852
H 1630.5 23.0224 81.7542 19520 8852
C 1630.56 21.3365 83.9759 19521 8852
H 1631.21 23.2357 84.7456 19522 8852
H 1629.64 23.3763 83.99550000000001 19523 8852
C 1629.91 20.8781 85.3502 19524 8852
H 1630.12 20.9199 83.12350000000001 19525 8852
H 1631.62 20.8948 83.92100000000001 19526 8852
C 1629.7 19.3609 85.2109 19527 8852
H 1630.64 21.1556 86.15560000000001 19528 8852
H 1629 21.4139 85.5651 19529 8852
C 1629.87 18.807 86.65779999999999 19530 8852
H 1628.73 19.1164 84.8202 19531 8852
H 1630.54 18.9441 84.574 19532 8852
C 1630.42 17.3306 86.64409999999999 19533 8852
H 1630.56 19.4555 87.27889999999999 19534 8852
H 1628.87 18.9423 87.1476 19535 8852
H 1629.71 16.6906 86.2119 19536 8852
H 1631.4 17.315 86.1511 19537 8852
H 1630.58 16.9694 87.6709 19538 8852
C 1600.14 86.2911 35.5575 19539 8853
C 1598.7 86.7623 35.7883 19540 8853
H 1600.16 85.52589999999999 34.7298 19541 8853
H 1600.85 87.1147 35.2413 19542 8853
H 1600.55 85.7597 36.4334 19543 8853
C 1597.85 85.52809999999999 36.2688 19544 8853
H 1598.66 87.54770000000001 36.5405 19545 8853
H 1598.33 87.17870000000001 34.8712 19546 8853
C 1596.35 85.93259999999999 36.1717 19547 8853
H 1598.07 84.6759 35.6229 19548 8853
H 1598.14 85.20059999999999 37.3114 19549 8853
C 1595.93 86.75539999999999 37.4437 19550 8853
H 1596.13 86.52760000000001 35.2674 19551 8853
H 1595.72 85.0497 36.011 19552 8853
C 1596.03 85.965 38.769 19553 8853
H 1596.51 87.6801 37.4861 19554 8853
H 1594.87 87.1301 37.2526 19555 8853
C 1595.56 86.7178 40.0685 19556 8853
H 1595.62 84.9661 38.7093 19557 8853
H 1597.11 85.8797 38.9799 19558 8853
C 1595.51 85.911 41.4086 19559 8853
H 1596.21 87.6187 40.2686 19560 8853
H 1594.59 87.1374 39.9167 19561 8853
C 1596.94 85.3313 41.7425 19562 8853
H 1595.11 86.5407 42.2031 19563 8853
H 1594.82 85.1159 41.3456 19564 8853
C 1596.96 84.447 42.9754 19565 8853
H 1597.45 84.7676 40.9221 19566 8853
H 1597.64 86.1285 41.8752 19567 8853
C 1598.36 83.82599999999999 43.269 19568 8853
H 1596.69 85.1229 43.8617 19569 8853
H 1596.13 83.6404 42.9347 19570 8853
C 1598.35 83.20440000000001 44.6924 19571 8853
H 1598.6 83.0557 42.4948 19572 8853
H 1599.16 84.5986 43.1973 19573 8853
H 1597.61 82.3982 44.7957 19574 8853
H 1599.32 82.71420000000001 44.8944 19575 8853
H 1598.22 83.9676 45.4786 19576 8853
C 1824.94 101.749 47.62 19577 8854
C 1823.75 100.803 47.3517 19578 8854
H 1825.44 102.006 46.7288 19579 8854
H 1824.64 102.65 48.1547 19580 8854
H 1825.72 101.354 48.3642 19581 8854
C 1822.83 100.57 48.5604 19582 8854
H 1823.16 101.18 46.5247 19583 8854
H 1824.16 99.8357 47.0741 19584 8854
C 1821.65 99.6297 48.1339 19585 8854
H 1823.5 100.248 49.3869 19586 8854
H 1822.44 101.542 48.9364 19587 8854
C 1822.09 98.1146 48.1754 19588 8854
H 1820.72 99.81610000000001 48.6791 19589 8854
H 1821.39 99.9074 47.1512 19590 8854
C 1820.93 97.1867 47.7265 19591 8854
H 1823.01 97.8639 47.6218 19592 8854
H 1822.32 97.9075 49.2485 19593 8854
C 1821.18 95.6711 47.9049 19594 8854
H 1819.96 97.4064 48.2019 19595 8854
H 1820.65 97.3325 46.6933 19596 8854
C 1822.2 95.16970000000001 46.7932 19597 8854
H 1821.49 95.3734 48.9097 19598 8854
H 1820.21 95.14060000000001 47.8612 19599 8854
C 1823.7 95.31189999999999 47.1239 19600 8854
H 1822.04 94.102 46.5691 19601 8854
H 1821.9 95.5016 45.7734 19602 8854
C 1824.02 94.7402 48.5358 19603 8854
H 1824.32 94.9533 46.2732 19604 8854
H 1824.03 96.3847 47.1366 19605 8854
C 1825.54 94.9761 48.8585 19606 8854
H 1823.34 95.2 49.3114 19607 8854
H 1823.67 93.69159999999999 48.5889 19608 8854
C 1826.04 94.6302 50.2862 19609 8854
H 1826.21 94.4186 48.1284 19610 8854
H 1825.69 96.02509999999999 48.6771 19611 8854
H 1826.21 93.5663 50.3902 19612 8854
H 1826.98 95.1238 50.5149 19613 8854
H 1825.32 94.9448 51.0467 19614 8854
C 1728.36 122.511 140.96 19615 8855
C 1727.58 122.215 139.592 19616 8855
H 1729.37 122.042 141.011 19617 8855
H 1728.45 123.612 141.09 19618 8855
H 1727.79 122.058 141.787 19619 8855
C 1727.45 120.734 139.334 19620 8855
H 1726.59 122.662 139.727 19621 8855
H 1728.05 122.778 138.787 19622 8855
C 1726.25 120.298 138.42 19623 8855
H 1728.37 120.413 138.892 19624 8855
H 1727.32 120.119 140.265 19625 8855
C 1726.42 118.814 138.087 19626 8855
H 1725.19 120.519 138.754 19627 8855
H 1726.21 120.866 137.485 19628 8855
C 1725.49 118 139.018 19629 8855
H 1726.01 118.708 137.057 19630 8855
H 1727.46 118.463 138.103 19631 8855
C 1725 116.658 138.31 19632 8855
H 1726.04 117.828 139.926 19633 8855
H 1724.63 118.556 139.351 19634 8855
C 1723.97 115.816 139.039 19635 8855
H 1724.56 116.85 137.281 19636 8855
H 1725.92 116.055 138.09 19637 8855
C 1724.06 115.879 140.624 19638 8855
H 1722.96 116.112 138.76 19639 8855
H 1723.93 114.807 138.561 19640 8855
C 1722.98 114.942 141.204 19641 8855
H 1725.06 115.535 140.963 19642 8855
H 1723.96 116.929 140.999 19643 8855
C 1721.53 115.544 141.233 19644 8855
H 1722.97 114.035 140.636 19645 8855
H 1723.23 114.689 142.204 19646 8855
C 1720.54 114.394 140.841 19647 8855
H 1721.37 115.981 142.198 19648 8855
H 1721.44 116.383 140.558 19649 8855
H 1719.54 114.799 140.658 19650 8855
H 1720.78 113.855 139.871 19651 8855
H 1720.32 113.723 141.619 19652 8855
C 1697.85 10.4885 9.441079999999999 19653 8856
C 1698.3 9.28134 8.474030000000001 19654 8856
H 1698.09 10.3127 10.4982 19655 8856
H 1698.32 11.4232 9.079219999999999 19656 8856
H 1696.75 10.6601 9.34028 19657 8856
C 1699.81 9.239509999999999 8.085710000000001 19658 8856
H 1698.03 8.298299999999999 8.909750000000001 19659 8856
H 1697.67 9.3055 7.59596 19660 8856
C 1700.11 8.12186 7.07795 19661 8856
H 1700.17 10.2231 7.6688 19662 8856
H 1700.32 9.114520000000001 8.99455 19663 8856
C 1701.68 7.98715 6.85392 19664 8856
H 1699.63 7.18755 7.42252 19665 8856
H 1699.54 8.3186 6.1337 19666 8856
C 1702.25 9.18788 6.08159 19667 8856
H 1702.2 7.85297 7.84341 19668 8856
H 1701.95 7.11999 6.27777 19669 8856
C 1703.76 9.029350000000001 5.85479 19670 8856
H 1701.66 9.325430000000001 5.16218 19671 8856
H 1702 10.0955 6.62104 19672 8856
C 1704.21 10.0737 4.79061 19673 8856
H 1704.32 9.20519 6.74388 19674 8856
H 1704.02 7.99821 5.57232 19675 8856
C 1704.01 11.5323 5.22163 19676 8856
H 1705.23 9.87745 4.43644 19677 8856
H 1703.63 9.92287 3.88289 19678 8856
C 1704.65 11.7624 6.65612 19679 8856
H 1704.49 12.2206 4.50485 19680 8856
H 1702.94 11.7905 5.19888 19681 8856
C 1704.66 13.2569 7.04451 19682 8856
H 1704.06 11.1948 7.34587 19683 8856
H 1705.67 11.3402 6.71794 19684 8856
C 1704.72 13.5566 8.56916 19685 8856
H 1705.49 13.8092 6.54865 19686 8856
H 1703.78 13.7364 6.6429 19687 8856
H 1705.73 13.3617 9.042059999999999 19688 8856
H 1704.5 14.5732 8.80767 19689 8856
H 1703.99 13.017 9.1562 19690 8856
C 1757.66 86.5865 116.549 19691 8857
C 1756.2 86.6087 117.108 19692 8857
H 1757.82 85.6758 115.864 19693 8857
H 1757.78 87.4924 115.903 19694 8857
H 1758.44 86.67189999999999 117.294 19695 8857
C 1755.17 86.5728 115.996 19696 8857
H 1756.06 85.8098 117.781 19697 8857
H 1756 87.4552 117.779 19698 8857
C 1753.73 86.6623 116.709 19699 8857
H 1755.39 87.34690000000001 115.227 19700 8857
H 1755.28 85.5455 115.53 19701 8857
C 1752.46 86.66630000000001 115.782 19702 8857
H 1753.69 85.8039 117.36 19703 8857
H 1753.66 87.4945 117.402 19704 8857
C 1752.58 87.7106 114.601 19705 8857
H 1752.31 85.62050000000001 115.441 19706 8857
H 1751.53 86.85939999999999 116.369 19707 8857
C 1752.88 89.2342 114.972 19708 8857
H 1753.31 87.3578 113.903 19709 8857
H 1751.58 87.75920000000001 114.074 19710 8857
C 1752.99 90.1065 113.712 19711 8857
H 1752.06 89.60380000000001 115.623 19712 8857
H 1753.9 89.4151 115.469 19713 8857
C 1753.99 91.2908 113.876 19714 8857
H 1753.25 89.5234 112.832 19715 8857
H 1751.95 90.5226 113.4 19716 8857
C 1753.51 92.24250000000001 115.02 19717 8857
H 1755.05 90.9829 114.044 19718 8857
H 1753.92 91.8746 112.943 19719 8857
C 1754.09 92.0441 116.483 19720 8857
H 1753.69 93.3308 114.82 19721 8857
H 1752.44 92.3048 115.081 19722 8857
C 1753.69 93.2277 117.39 19723 8857
H 1753.65 91.1262 116.983 19724 8857
H 1755.15 91.9486 116.445 19725 8857
H 1752.61 93.3428 117.57 19726 8857
H 1754.18 93.1932 118.368 19727 8857
H 1753.96 94.2075 117.011 19728 8857
C 1828.75 143.659 54.0506 19729 8858
C 1827.63 144.711 54.0916 19730 8858
H 1829.77 143.993 54.3463 19731 8858
H 1828.53 142.747 54.5936 19732 8858
H 1828.82 143.332 52.9873 19733 8858
C 1827.53 145.515 55.4264 19734 8858
H 1827.74 145.369 53.2027 19735 8858
H 1826.7 144.169 53.9684 19736 8858
C 1826.07 146.083 55.5407 19737 8858
H 1827.74 144.894 56.3315 19738 8858
H 1828.32 146.309 55.5004 19739 8858
C 1826.04 146.961 56.7976 19740 8858
H 1825.78 146.61 54.6487 19741 8858
H 1825.38 145.251 55.6733 19742 8858
C 1824.99 148.102 56.7232 19743 8858
H 1825.87 146.29 57.6599 19744 8858
H 1827.03 147.33 57.0309 19745 8858
C 1823.51 147.517 56.7054 19746 8858
H 1825.14 148.83 57.5205 19747 8858
H 1825.17 148.748 55.8523 19748 8858
C 1822.47 148.61 56.4952 19749 8858
H 1823.47 146.759 55.8382 19750 8858
H 1823.34 146.875 57.5941 19751 8858
C 1822.41 149.588 57.689 19752 8858
H 1822.61 149.204 55.56 19753 8858
H 1821.47 148.111 56.3083 19754 8858
C 1821.36 0.71823 57.4509 19755 8858
H 1822.21 149.069 58.6442 19756 8858
H 1823.44 149.992 57.8615 19757 8858
C 1819.89 0.233246 57.6314 19758 8858
H 1821.53 1.52257 58.206 19759 8858
H 1821.45 1.26222 56.4997 19760 8858
C 1819.02 1.26932 56.8037 19761 8858
H 1819.75 149.259 57.1985 19762 8858
H 1819.69 0.110647 58.7029 19763 8858
H 1819.25 1.25597 55.7239 19764 8858
H 1817.96 0.981804 56.8743 19765 8858
H 1819.15 2.3 57.1816 19766 8858
C 1875.43 31.3745 66.797 19767 8859
C 1874.1 32.175 66.87820000000001 19768 8859
H 1876.22 31.9557 66.2659 19769 8859
H 1875.83 31.1118 67.7526 19770 8859
H 1875.3 30.3983 66.2938 19771 8859
C 1874.19 33.5035 67.6593 19772 8859
H 1873.68 32.3176 65.8991 19773 8859
H 1873.32 31.5451 67.40000000000001 19774 8859
C 1875.08 34.6187 66.99809999999999 19775 8859
H 1873.19 33.8831 67.8586 19776 8859
H 1874.6 33.2518 68.67489999999999 19777 8859
C 1875.53 35.6209 68.0746 19778 8859
H 1875.98 34.2293 66.47320000000001 19779 8859
H 1874.53 35.1003 66.17319999999999 19780 8859
C 1876.4 36.7611 67.5671 19781 8859
H 1874.69 36.0431 68.577 19782 8859
H 1876.13 35.1192 68.8925 19783 8859
C 1876.97 37.4846 68.8682 19784 8859
H 1877.15 36.5281 66.8372 19785 8859
H 1875.81 37.4498 66.9517 19786 8859
C 1877.91 38.6682 68.5544 19787 8859
H 1876.14 37.8401 69.38849999999999 19788 8859
H 1877.53 36.7649 69.4877 19789 8859
C 1878.37 39.5209 69.723 19790 8859
H 1878.82 38.2311 68.0564 19791 8859
H 1877.41 39.3105 67.77460000000001 19792 8859
C 1879.47 38.8757 70.7054 19793 8859
H 1878.75 40.5195 69.29179999999999 19794 8859
H 1877.52 39.8261 70.342 19795 8859
C 1879.85 39.8201 71.82389999999999 19796 8859
H 1879.02 37.9035 71.107 19797 8859
H 1880.36 38.5232 70.182 19798 8859
C 1881 40.6942 71.22790000000001 19799 8859
H 1879.05 40.4475 72.1867 19800 8859
H 1880.19 39.2413 72.685 19801 8859
H 1880.59 41.2872 70.33459999999999 19802 8859
H 1881.4 41.3922 71.9551 19803 8859
H 1881.89 40.1309 70.8707 19804 8859
C 1885.55 24.0585 96.003 19805 8860
C 1886.41 25.2315 95.3109 19806 8860
H 1885.67 23.0418 95.51430000000001 19807 8860
H 1885.85 23.7671 96.995 19808 8860
H 1884.46 24.3224 96.0231 19809 8860
C 1887.91 24.8968 95.10809999999999 19810 8860
H 1885.92 25.5614 94.4238 19811 8860
H 1886.3 26.11 95.9327 19812 8860
C 1888.58 25.9853 94.2625 19813 8860
H 1888.46 24.7176 96.0338 19814 8860
H 1888 23.8997 94.5835 19815 8860
C 1888.45 27.4415 94.8711 19816 8860
H 1889.57 25.6795 93.93810000000001 19817 8860
H 1888.11 25.9866 93.2334 19818 8860
C 1888.86 27.7125 96.3574 19819 8860
H 1888.97 28.1515 94.2807 19820 8860
H 1887.43 27.7948 94.748 19821 8860
C 1888.63 29.2112 96.6464 19822 8860
H 1888.26 27.1044 97.0205 19823 8860
H 1889.92 27.4793 96.5607 19824 8860
C 1888.41 29.3267 98.1865 19825 8860
H 1889.49 29.789 96.30710000000001 19826 8860
H 1887.83 29.5975 96.07259999999999 19827 8860
C 1888.26 30.8392 98.5749 19828 8860
H 1887.53 28.7732 98.4712 19829 8860
H 1889.25 28.8789 98.7406 19830 8860
C 1886.77 31.2488 98.3199 19831 8860
H 1888.53 31.0183 99.6194 19832 8860
H 1888.97 31.4389 98.04819999999999 19833 8860
C 1886.48 31.6498 96.8772 19834 8860
H 1886.13 30.3577 98.581 19835 8860
H 1886.41 32.0022 99.0309 19836 8860
C 1884.94 32.0016 96.75360000000001 19837 8860
H 1887.16 32.4756 96.6135 19838 8860
H 1886.74 30.8995 96.1782 19839 8860
H 1884.68 32.3051 95.79649999999999 19840 8860
H 1884.31 31.1443 97.02209999999999 19841 8860
H 1884.73 32.8212 97.4286 19842 8860
C 1755.65 8.62923 25.5659 19843 8861
C 1754.31 8.43084 26.3255 19844 8861
H 1755.6 9.66704 25.0954 19845 8861
H 1756.49 8.638479999999999 26.2879 19846 8861
H 1755.83 7.89041 24.7416 19847 8861
C 1753.91 9.62881 27.167 19848 8861
H 1753.53 8.101649999999999 25.6422 19849 8861
H 1754.48 7.5474 26.941 19850 8861
C 1752.51 9.38111 27.9024 19851 8861
H 1754.72 9.83975 27.87 19852 8861
H 1753.87 10.5933 26.6098 19853 8861
C 1752.65 8.26454 28.939 19854 8861
H 1752.06 10.2844 28.3546 19855 8861
H 1751.76 9.089829999999999 27.1252 19856 8861
C 1753.35 8.75727 30.1984 19857 8861
H 1751.69 7.83411 29.2167 19858 8861
H 1753.16 7.41176 28.476 19859 8861
C 1753.75 7.44553 31.0378 19860 8861
H 1754.21 9.41423 29.9653 19861 8861
H 1752.7 9.417770000000001 30.8101 19862 8861
C 1754.8 6.69717 30.2784 19863 8861
H 1754.16 7.78234 32.0135 19864 8861
H 1752.83 6.86466 31.2405 19865 8861
C 1755.1 5.30873 30.901 19866 8861
H 1754.63 6.57612 29.195 19867 8861
H 1755.75 7.2576 30.3047 19868 8861
C 1756.57 4.903 30.4821 19869 8861
H 1754.96 5.30523 31.9853 19870 8861
H 1754.42 4.53045 30.5381 19871 8861
C 1757.14 3.70549 31.3186 19872 8861
H 1756.6 4.73775 29.4396 19873 8861
H 1757.25 5.67462 30.6398 19874 8861
C 1758.58 3.31689 31.0106 19875 8861
H 1757.03 4.03537 32.3756 19876 8861
H 1756.5 2.8088 31.3121 19877 8861
H 1759.16 4.24046 30.9714 19878 8861
H 1759.04 2.57288 31.7044 19879 8861
H 1758.74 2.85474 30.0006 19880 8861
C 1951.87 93.65349999999999 83.4987 19881 8862
C 1952.87 94.3613 84.52 19882 8862
H 1952.37 93.1905 82.65309999999999 19883 8862
H 1951.26 92.88930000000001 83.93210000000001 19884 8862
H 1951.13 94.4055 83.1409 19885 8862
C 1953.46 95.5973 83.85290000000001 19886 8862
H 1952.4 94.6331 85.46850000000001 19887 8862
H 1953.69 93.70180000000001 84.7748 19888 8862
C 1954.58 95.22929999999999 82.9072 19889 8862
H 1952.72 96.22329999999999 83.3351 19890 8862
H 1953.88 96.33929999999999 84.5707 19891 8862
C 1955.04 96.4513 81.9349 19892 8862
H 1955.44 94.93729999999999 83.5112 19893 8862
H 1954.37 94.2799 82.3413 19894 8862
C 1956.05 96.0304 80.89230000000001 19895 8862
H 1954.13 96.87220000000001 81.4674 19896 8862
H 1955.39 97.30249999999999 82.4889 19897 8862
C 1956.34 97.30329999999999 80.0163 19898 8862
H 1957.02 95.7013 81.3309 19899 8862
H 1955.71 95.28 80.2839 19900 8862
C 1957.63 96.9689 79.1906 19901 8862
H 1955.51 97.5527 79.33759999999999 19902 8862
H 1956.55 98.19589999999999 80.6738 19903 8862
C 1958.98 97.3126 79.8061 19904 8862
H 1957.55 95.9238 78.898 19905 8862
H 1957.52 97.50060000000001 78.2034 19906 8862
C 1959.12 98.8321 80.3244 19907 8862
H 1959.34 96.6313 80.5204 19908 8862
H 1959.66 97.13 78.9855 19909 8862
C 1960.45 99.16589999999999 81.0119 19910 8862
H 1959.02 99.5367 79.45140000000001 19911 8862
H 1958.22 99.027 80.9791 19912 8862
C 1960.38 100.481 81.7764 19913 8862
H 1960.66 98.3729 81.77800000000001 19914 8862
H 1961.28 99.07640000000001 80.267 19915 8862
H 1960.89 101.261 81.1554 19916 8862
H 1959.37 100.975 81.85769999999999 19917 8862
H 1960.92 100.432 82.7565 19918 8862
C 1965.06 74.3077 24.9114 19919 8863
C 1965.61 75.7937 25.0806 19920 8863
H 1965.89 73.6738 25.1375 19921 8863
H 1964.16 74.06950000000001 25.4763 19922 8863
H 1964.94 73.9697 23.8425 19923 8863
C 1966.07 75.9683 26.5345 19924 8863
H 1966.4 76.1005 24.3939 19925 8863
H 1964.76 76.53579999999999 24.9161 19926 8863
C 1966.45 77.41200000000001 26.9773 19927 8863
H 1965.3 75.6681 27.208 19928 8863
H 1966.92 75.2863 26.8318 19929 8863
C 1966.74 77.551 28.5217 19930 8863
H 1967.31 77.82340000000001 26.3751 19931 8863
H 1965.6 78.0668 26.8077 19932 8863
C 1967.29 78.9259 28.864 19933 8863
H 1965.84 77.373 29.0816 19934 8863
H 1967.44 76.7565 28.8185 19935 8863
C 1966.17 79.99509999999999 28.8422 19936 8863
H 1967.76 78.9061 29.857 19937 8863
H 1968.11 79.1905 28.1701 19938 8863
C 1966.72 81.4689 28.9497 19939 8863
H 1965.56 79.86969999999999 27.8737 19940 8863
H 1965.45 79.8021 29.6837 19941 8863
C 1965.47 82.3891 28.8293 19942 8863
H 1967.29 81.6088 29.8921 19943 8863
H 1967.41 81.6923 28.1032 19944 8863
C 1965.94 83.85080000000001 28.5564 19945 8863
H 1964.84 82.1159 27.9645 19946 8863
H 1964.78 82.33280000000001 29.685 19947 8863
C 1964.75 84.7816 28.2105 19948 8863
H 1966.51 84.31229999999999 29.3838 19949 8863
H 1966.62 83.8262 27.6751 19950 8863
C 1965.18 86.277 28.1138 19951 8863
H 1964.33 84.55240000000001 27.2575 19952 8863
H 1963.93 84.6865 28.9029 19953 8863
H 1965.77 86.63209999999999 28.9936 19954 8863
H 1965.75 86.49379999999999 27.2142 19955 8863
H 1964.32 86.9645 28.0213 19956 8863
C 1879.96 101.398 141.425 19957 8864
C 1879.93 102.396 140.212 19958 8864
H 1880.33 100.406 141.123 19959 8864
H 1880.58 101.676 142.296 19960 8864
H 1878.95 101.306 141.827 19961 8864
C 1881.33 102.925 139.91 19962 8864
H 1879.46 101.915 139.284 19963 8864
H 1879.22 103.155 140.589 19964 8864
C 1881.26 104.254 139.104 19965 8864
H 1881.99 102.95 140.777 19966 8864
H 1881.9 102.187 139.347 19967 8864
C 1882.34 105.276 139.645 19968 8864
H 1881.35 104.012 138.018 19969 8864
H 1880.28 104.758 139.164 19970 8864
C 1882.46 106.482 138.675 19971 8864
H 1882.1 105.55 140.682 19972 8864
H 1883.3 104.769 139.788 19973 8864
C 1883.37 107.525 139.375 19974 8864
H 1882.87 106.16 137.652 19975 8864
H 1881.46 106.85 138.485 19976 8864
C 1884.87 107.051 139.212 19977 8864
H 1883.24 108.534 138.909 19978 8864
H 1882.98 107.71 140.424 19979 8864
C 1885.81 108.141 139.638 19980 8864
H 1885.07 106.121 139.746 19981 8864
H 1885.06 106.778 138.156 19982 8864
C 1887.31 107.866 139.074 19983 8864
H 1885.49 109.183 139.352 19984 8864
H 1885.83 108.2 140.744 19985 8864
C 1888.3 108.869 139.633 19986 8864
H 1887.62 106.865 139.238 19987 8864
H 1887.33 107.938 137.945 19988 8864
C 1889.79 108.459 139.398 19989 8864
H 1888.12 109.883 139.259 19990 8864
H 1888.13 108.882 140.761 19991 8864
H 1890.12 108.2 138.394 19992 8864
H 1890.51 109.239 139.696 19993 8864
H 1890.08 107.663 140.094 19994 8864
C 2031.85 39.2755 61.3649 19995 8865
C 2032.24 38.7144 62.7383 19996 8865
H 2031.73 38.5743 60.5004 19997 8865
H 2030.89 39.8077 61.387 19998 8865
H 2032.52 40.0618 60.9685 19999 8865
C 2032.53 39.7452 63.8207 20000 8865
H 2031.46 37.9826 63.0867 20001 8865
H 2033.06 37.9596 62.5881 20002 8865
C 2032.7 39.0163 65.23609999999999 20003 8865
H 2033.44 40.3636 63.6026 20004 8865
H 2031.67 40.3989 63.9611 20005 8865
C 2033.93 38.1485 65.46729999999999 20006 8865
H 2032.78 39.7217 66.0124 20007 8865
H 2031.75 38.5023 65.4768 20008 8865
C 2035.32 38.8526 65.46550000000001 20009 8865
H 2033.81 37.662 66.4676 20010 8865
H 2033.92 37.2655 64.7714 20011 8865
C 2036.57 37.9121 65.2809 20012 8865
H 2035.37 39.6457 64.672 20013 8865
H 2035.37 39.4904 66.3747 20014 8865
C 2037.84 38.633 64.8518 20015 8865
H 2036.73 37.2709 66.1867 20016 8865
H 2036.33 37.1907 64.48390000000001 20017 8865
C 2038.99 37.6247 64.544 20018 8865
H 2037.76 39.2459 63.915 20019 8865
H 2038.07 39.3392 65.67959999999999 20020 8865
C 2040.28 38.3128 63.9238 20021 8865
H 2039.19 37.0703 65.4747 20022 8865
H 2038.64 36.8693 63.7678 20023 8865
C 2041.37 37.336 63.571 20024 8865
H 2039.99 39.0032 63.1083 20025 8865
H 2040.64 39.0653 64.6502 20026 8865
C 2042.54 38.0477 62.8166 20027 8865
H 2041.76 36.8089 64.479 20028 8865
H 2041.05 36.4786 62.9478 20029 8865
H 2043.18 38.6901 63.4202 20030 8865
H 2043.24 37.2988 62.3768 20031 8865
H 2042.19 38.6575 61.9769 20032 8865
C 2235.79 95.3246 103.24 20033 8866
C 2236.35 96.5913 102.49 20034 8866
H 2236.57 94.5861 103.515 20035 8866
H 2235.3 95.5714 104.17 20036 8866
H 2235 94.80419999999999 102.635 20037 8866
C 2235.24 97.36239999999999 101.737 20038 8866
H 2236.91 97.28360000000001 103.195 20039 8866
H 2237.07 96.1973 101.752 20040 8866
C 2235.9 98.6322 101.156 20041 8866
H 2234.76 96.7684 100.951 20042 8866
H 2234.41 97.5577 102.432 20043 8866
C 2234.86 99.4589 100.285 20044 8866
H 2236.25 99.2342 101.969 20045 8866
H 2236.79 98.50920000000001 100.545 20046 8866
C 2234.66 98.8588 98.9405 20047 8866
H 2233.89 99.6632 100.833 20048 8866
H 2235.21 100.48 100.173 20049 8866
C 2233.61 99.5819 98.0197 20050 8866
H 2235.61 98.8155 98.46599999999999 20051 8866
H 2234.36 97.76860000000001 99.0411 20052 8866
C 2232.22 99.80329999999999 98.6778 20053 8866
H 2233.98 100.551 97.6254 20054 8866
H 2233.5 99.0078 97.04649999999999 20055 8866
C 2231.55 98.50020000000001 99.1515 20056 8866
H 2232.31 100.497 99.52970000000001 20057 8866
H 2231.62 100.405 98.01300000000001 20058 8866
C 2230.02 98.7021 99.5365 20059 8866
H 2231.6 97.752 98.3819 20060 8866
H 2232.04 98.0346 99.99979999999999 20061 8866
C 2229.37 97.2996 99.6414 20062 8866
H 2229.92 99.2988 100.403 20063 8866
H 2229.5 99.27249999999999 98.76949999999999 20064 8866
C 2228.04 97.53660000000001 100.393 20065 8866
H 2229.24 96.7509 98.7225 20066 8866
H 2230.06 96.68300000000001 100.282 20067 8866
H 2227.36 98.2174 99.90049999999999 20068 8866
H 2227.53 96.59 100.677 20069 8866
H 2228.21 98.09059999999999 101.348 20070 8866
C 1996.18 23.131 124.126 20071 8867
C 1995.22 23.1782 125.383 20072 8867
H 1997.2 23.2756 124.462 20073 8867
H 1996.16 22.1041 123.713 20074 8867
H 1995.91 23.7963 123.315 20075 8867
C 1995.67 22.2426 126.5 20076 8867
H 1995.15 24.1919 125.786 20077 8867
H 1994.22 22.9242 125.072 20078 8867
C 1994.89 22.6385 127.788 20079 8867
H 1995.52 21.2072 126.31 20080 8867
H 1996.75 22.2765 126.65 20081 8867
C 1995.55 21.8124 128.967 20082 8867
H 1995 23.724 128.076 20083 8867
H 1993.81 22.4113 127.622 20084 8867
C 1995.34 22.5393 130.31 20085 8867
H 1995.16 20.8151 128.994 20086 8867
H 1996.66 21.6169 128.798 20087 8867
C 1995.7 21.5738 131.42 20088 8867
H 1995.98 23.4808 130.437 20089 8867
H 1994.27 22.9093 130.37 20090 8867
C 1994.39 20.7819 131.742 20091 8867
H 1996.57 20.927 131.148 20092 8867
H 1996.03 22.1964 132.311 20093 8867
C 1994.78 19.7469 132.86 20094 8867
H 1993.59 21.4815 132.106 20095 8867
H 1993.99 20.2452 130.847 20096 8867
C 1993.55 18.9305 133.374 20097 8867
H 1995.57 19.0813 132.399 20098 8867
H 1995.4 20.1727 133.675 20099 8867
C 1993.93 17.7256 134.222 20100 8867
H 1992.87 19.5408 134.005 20101 8867
H 1992.91 18.5871 132.53 20102 8867
C 1994.31 18.2143 135.718 20103 8867
H 1993.08 17.0231 134.304 20104 8867
H 1994.79 17.1353 133.767 20105 8867
H 1994.63 17.4093 136.386 20106 8867
H 1995.13 18.8826 135.719 20107 8867
H 1993.53 18.8176 136.211 20108 8867
C 2274.68 78.71720000000001 80.0706 20109 8868
C 2273.88 78.4909 81.39490000000001 20110 8868
H 2274.13 78.1413 79.2466 20111 8868
H 2274.79 79.7795 79.845 20112 8868
H 2275.75 78.4037 80.07389999999999 20113 8868
C 2272.36 78.3506 81.21639999999999 20114 8868
H 2274.27 77.6536 81.9902 20115 8868
H 2274.11 79.3409 82.0712 20116 8868
C 2271.63 78.34139999999999 82.5989 20117 8868
H 2272.11 79.24039999999999 80.6223 20118 8868
H 2272.11 77.43810000000001 80.62820000000001 20119 8868
C 2270.09 78.2985 82.41119999999999 20120 8868
H 2271.88 77.4846 83.2056 20121 8868
H 2271.99 79.2041 83.1497 20122 8868
C 2269.37 78.07380000000001 83.7931 20123 8868
H 2269.65 79.1758 81.92230000000001 20124 8868
H 2269.83 77.41630000000001 81.7816 20125 8868
C 2267.84 78.1527 83.6367 20126 8868
H 2269.68 77.0962 84.21120000000001 20127 8868
H 2269.82 78.7881 84.5318 20128 8868
C 2267.24 78.2717 85.06999999999999 20129 8868
H 2267.6 79.07810000000001 83.05889999999999 20130 8868
H 2267.39 77.2876 83.0836 20131 8868
C 2267.34 79.62260000000001 85.8385 20132 8868
H 2266.17 78.0843 85.08750000000001 20133 8868
H 2267.63 77.4769 85.7183 20134 8868
C 2266.65 79.6183 87.2105 20135 8868
H 2268.38 80.0292 85.8865 20136 8868
H 2266.8 80.3766 85.26609999999999 20137 8868
C 2266.82 81.05889999999999 87.82170000000001 20138 8868
H 2265.6 79.36320000000001 87.1114 20139 8868
H 2266.96 78.8026 87.86960000000001 20140 8868
C 2266.17 81.3861 89.2011 20141 8868
H 2267.9 81.26479999999999 87.83540000000001 20142 8868
H 2266.42 81.75700000000001 87.0967 20143 8868
H 2265.07 81.5521 89.1692 20144 8868
H 2266.35 80.59780000000001 89.9426 20145 8868
H 2266.56 82.297 89.65860000000001 20146 8868
C 2105.07 67.4525 100.083 20147 8869
C 2104.41 68.6224 100.856 20148 8869
H 2106.17 67.431 100.283 20149 8869
H 2104.68 66.4757 100.386 20150 8869
H 2104.92 67.5698 98.9662 20151 8869
C 2104.74 68.59999999999999 102.337 20152 8869
H 2104.54 69.6339 100.379 20153 8869
H 2103.3 68.47880000000001 100.75 20154 8869
C 2104.31 69.8351 103.158 20155 8869
H 2104.29 67.6964 102.778 20156 8869
H 2105.83 68.37609999999999 102.445 20157 8869
C 2104.69 69.5635 104.683 20158 8869
H 2104.83 70.7817 102.746 20159 8869
H 2103.28 70.0746 102.988 20160 8869
C 2104.53 70.7861 105.59 20161 8869
H 2104.07 68.75020000000001 105.049 20162 8869
H 2105.74 69.19289999999999 104.8 20163 8869
C 2105.35 70.5385 106.869 20164 8869
H 2104.83 71.7289 105.053 20165 8869
H 2103.47 70.8681 105.831 20166 8869
C 2104.98 71.6711 107.965 20167 8869
H 2105.16 69.5138 107.193 20168 8869
H 2106.43 70.56740000000001 106.709 20169 8869
C 2105.6 71.4483 109.346 20170 8869
H 2105.08 72.70269999999999 107.576 20171 8869
H 2103.87 71.6692 108.132 20172 8869
C 2105.35 72.56140000000001 110.363 20173 8869
H 2105.36 70.4551 109.786 20174 8869
H 2106.72 71.3409 109.197 20175 8869
C 2104.16 72.30719999999999 111.387 20176 8869
H 2106.26 72.8169 110.966 20177 8869
H 2105.25 73.5523 109.874 20178 8869
C 2103.87 73.65600000000001 112.092 20179 8869
H 2103.32 71.9315 110.863 20180 8869
H 2104.44 71.5757 112.128 20181 8869
H 2103.3 74.3922 111.494 20182 8869
H 2103.32 73.6031 113.089 20183 8869
H 2104.86 74.1464 112.35 20184 8869
C 2080.56 39.2868 7.78225 20185 8870
C 2079.69 40.3646 8.41531 20186 8870
H 2080.06 38.3278 7.48719 20187 8870
H 2081.14 39.6826 6.93152 20188 8870
H 2081.27 38.8267 8.484970000000001 20189 8870
C 2078.39 40.5168 7.56723 20190 8870
H 2079.25 40.1514 9.4428 20191 8870
H 2080.27 41.3617 8.522040000000001 20192 8870
C 2077.41 41.4755 8.36735 20193 8870
H 2078.53 40.9811 6.6001 20194 8870
H 2077.97 39.5341 7.34678 20195 8870
C 2077.59 42.9468 7.8873 20196 8870
H 2076.38 41.0893 8.37706 20197 8870
H 2077.72 41.3891 9.41014 20198 8870
C 2076.51 43.8045 8.473280000000001 20199 8870
H 2078.6 43.2746 8.17516 20200 8870
H 2077.57 42.9116 6.78789 20201 8870
C 2076.6 45.2449 7.80551 20202 8870
H 2075.49 43.3982 8.34118 20203 8870
H 2076.58 43.9306 9.59186 20204 8870
C 2076.36 45.2411 6.26881 20205 8870
H 2075.88 45.8767 8.27703 20206 8870
H 2077.56 45.7255 8.028130000000001 20207 8870
C 2076.42 46.6529 5.71212 20208 8870
H 2077.14 44.5941 5.78003 20209 8870
H 2075.45 44.7043 5.8993 20210 8870
C 2076.13 46.6812 4.12786 20211 8870
H 2075.67 47.2622 6.19156 20212 8870
H 2077.36 47.141 5.9619 20213 8870
C 2074.74 46.1367 3.88259 20214 8870
H 2076.34 47.6428 3.70563 20215 8870
H 2076.93 46.1055 3.65089 20216 8870
C 2073.68 47.1548 4.43828 20217 8870
H 2074.58 46.0499 2.81987 20218 8870
H 2074.54 45.1191 4.18635 20219 8870
H 2073.72 48.1438 3.95245 20220 8870
H 2072.65 46.7717 4.27354 20221 8870
H 2073.69 47.3661 5.54205 20222 8870
C 2233.26 63.8823 26.0648 20223 8871
C 2234.21 64.4217 27.1012 20224 8871
H 2233.75 63.618 25.1476 20225 8871
H 2232.75 62.9618 26.333 20226 8871
H 2232.42 64.6228 25.8143 20227 8871
C 2235.38 63.3895 27.2682 20228 8871
H 2234.58 65.4567 26.8446 20229 8871
H 2233.74 64.6721 28.1337 20230 8871
C 2236.43 63.9433 28.2996 20231 8871
H 2235.02 62.4081 27.5275 20232 8871
H 2235.83 63.3071 26.2732 20233 8871
C 2237.77 63.1625 28.2121 20234 8871
H 2236.6 65.02070000000001 28.2314 20235 8871
H 2236.01 63.8715 29.3087 20236 8871
C 2238.85 63.4442 29.2828 20237 8871
H 2237.55 62.079 28.2319 20238 8871
H 2238.23 63.4118 27.1654 20239 8871
C 2239.02 64.98309999999999 29.5006 20240 8871
H 2238.54 63.0788 30.3033 20241 8871
H 2239.83 62.9683 29.0041 20242 8871
C 2239.52 65.69029999999999 28.2166 20243 8871
H 2238.14 65.5754 29.8374 20244 8871
H 2239.75 65.06100000000001 30.308 20245 8871
C 2239.81 67.1717 28.5732 20246 8871
H 2240.38 65.19280000000001 27.838 20247 8871
H 2238.77 65.6292 27.4627 20248 8871
C 2240.39 67.8817 27.2816 20249 8871
H 2238.91 67.7206 28.8403 20250 8871
H 2240.47 67.28879999999999 29.3869 20251 8871
C 2240.62 69.37439999999999 27.6808 20252 8871
H 2241.36 67.3869 26.8711 20253 8871
H 2239.67 67.8058 26.4898 20254 8871
C 2241.18 70.1735 26.4707 20255 8871
H 2239.65 69.76560000000001 28.0477 20256 8871
H 2241.27 69.41930000000001 28.5256 20257 8871
H 2240.53 70.2212 25.5666 20258 8871
H 2241.43 71.2655 26.7001 20259 8871
H 2242.24 69.8284 26.1596 20260 8871
C 2360.04 55.6578 0.6739849999999999 20261 8872
C 2359.03 55.8519 1.83706 20262 8872
H 2359.57 55.2621 149.785 20263 8872
H 2360.57 56.6069 0.367126 20264 8872
H 2360.79 54.906 0.986702 20265 8872
C 2357.84 56.8144 1.5387 20266 8872
H 2358.62 54.8874 2.2188 20267 8872
H 2359.62 56.1361 2.729 20268 8872
C 2357.09 56.4048 0.23654 20269 8872
H 2357.15 56.7462 2.389 20270 8872
H 2358.19 57.8632 1.55114 20271 8872
C 2355.73 57.1459 0.118732 20272 8872
H 2357.69 56.4783 149.357 20273 8872
H 2356.92 55.2917 0.195831 20274 8872
C 2355.3 56.8991 148.637 20275 8872
H 2354.99 56.7465 0.775441 20276 8872
H 2355.67 58.2124 0.352474 20277 8872
C 2353.8 57.2682 148.428 20278 8872
H 2355.93 57.4197 147.916 20279 8872
H 2355.48 55.86 148.34 20280 8872
C 2353.6 58.8148 148.451 20281 8872
H 2353.36 56.7374 147.54 20282 8872
H 2353.19 56.7645 149.267 20283 8872
C 2352.1 59.0925 148.323 20284 8872
H 2354.03 59.3099 149.336 20285 8872
H 2354.13 59.2771 147.62 20286 8872
C 2351.81 60.6148 148.407 20287 8872
H 2351.76 58.7042 147.322 20288 8872
H 2351.58 58.5508 149.142 20289 8872
C 2352.7 61.397 147.322 20290 8872
H 2350.71 60.824 148.297 20291 8872
H 2352.13 61.0252 149.377 20292 8872
C 2351.98 62.6903 147.04 20293 8872
H 2353.7 61.6298 147.618 20294 8872
H 2352.84 60.8382 146.424 20295 8872
H 2352.47 63.2691 146.26 20296 8872
H 2350.97 62.4884 146.644 20297 8872
H 2351.82 63.378 147.895 20298 8872
C 2277.22 2.20435 43.8871 20299 8873
C 2278.52 1.91051 43.1691 20300 8873
H 2276.8 1.30626 44.3757 20301 8873
H 2277.26 2.89531 44.7524 20302 8873
H 2276.44 2.60625 43.2353 20303 8873
C 2279.12 3.07925 42.3359 20304 8873
H 2279.26 1.57846 43.9689 20305 8873
H 2278.38 1.0623 42.4921 20306 8873
C 2280.32 2.48295 41.5071 20307 8873
H 2278.38 3.61857 41.7051 20308 8873
H 2279.44 3.92603 42.9918 20309 8873
C 2281.03 3.6371 40.7714 20310 8873
H 2280.99 1.91698 42.2104 20311 8873
H 2279.93 1.73434 40.8408 20312 8873
C 2282.23 3.01746 40.0205 20313 8873
H 2280.29 4.10695 40.0839 20314 8873
H 2281.39 4.48829 41.4097 20315 8873
C 2281.78 2.06195 38.8319 20316 8873
H 2282.98 3.78197 39.6545 20317 8873
H 2282.93 2.43201 40.6901 20318 8873
C 2282.94 1.70676 37.9032 20319 8873
H 2281.3 1.15026 39.2445 20320 8873
H 2280.93 2.56892 38.2846 20321 8873
C 2282.63 0.704878 36.7477 20322 8873
H 2283.39 2.63416 37.4948 20323 8873
H 2283.76 1.29074 38.4652 20324 8873
C 2281.46 1.18792 35.8262 20325 8873
H 2283.5 0.498776 36.1033 20326 8873
H 2282.43 149.671 37.0514 20327 8873
C 2281.45 0.392838 34.489 20328 8873
H 2280.52 1.14681 36.4197 20329 8873
H 2281.59 2.23914 35.6406 20330 8873
C 2280.14 0.753817 33.7246 20331 8873
H 2282.3 0.556509 33.8884 20332 8873
H 2281.55 149.29 34.6644 20333 8873
H 2280.13 0.48356 32.6572 20334 8873
H 2279.26 0.289614 34.2517 20335 8873
H 2279.9 1.84542 33.7772 20336 8873
C 2432.34 60.9831 3.80675 20337 8874
C 2431.13 61.2561 2.8986 20338 8874
H 2432.38 61.6147 4.69668 20339 8874
H 2432.35 59.9573 4.15004 20340 8874
H 2433.31 61.1971 3.38108 20341 8874
C 2429.9 60.7132 3.6783 20342 8874
H 2430.97 62.3344 2.71005 20343 8874
H 2431.22 60.7701 1.88555 20344 8874
C 2428.65 60.6162 2.78026 20345 8874
H 2430.05 59.7129 4.11023 20346 8874
H 2429.64 61.4195 4.5115 20347 8874
C 2427.34 60.1086 3.49285 20348 8874
H 2428.43 61.5834 2.34035 20349 8874
H 2428.93 59.9644 1.95429 20350 8874
C 2425.92 60.1661 2.86599 20351 8874
H 2427.47 59.0518 3.8416 20352 8874
H 2427.29 60.5701 4.52509 20353 8874
C 2425.8 59.4156 1.51872 20354 8874
H 2425.2 59.7853 3.58695 20355 8874
H 2425.57 61.206 2.76617 20356 8874
C 2424.34 58.8113 1.29919 20357 8874
H 2426.06 60.0177 0.644294 20358 8874
H 2426.56 58.5956 1.38306 20359 8874
C 2424.43 57.5907 0.373615 20360 8874
H 2424.01 58.4257 2.26797 20361 8874
H 2423.64 59.5453 0.9128270000000001 20362 8874
C 2424.75 58.0328 148.92 20363 8874
H 2425.19 56.9239 0.778305 20364 8874
H 2423.56 56.9494 0.371752 20365 8874
C 2425.19 56.8301 148.025 20366 8874
H 2423.93 58.652 148.432 20367 8874
H 2425.59 58.6888 148.961 20368 8874
C 2425.85 57.4074 146.717 20369 8874
H 2425.93 56.1596 148.563 20370 8874
H 2424.34 56.1761 147.787 20371 8874
H 2425.34 58.3043 146.38 20372 8874
H 2426.81 57.7652 147.008 20373 8874
H 2425.93 56.7597 145.819 20374 8874
C 2328.76 84.1878 108.244 20375 8875
C 2329.13 82.9396 109.04 20376 8875
H 2327.72 84.4706 108.371 20377 8875
H 2329.44 85.0408 108.422 20378 8875
H 2328.84 84.01179999999999 107.196 20379 8875
C 2328.81 83.1125 110.514 20380 8875
H 2328.71 82.0085 108.584 20381 8875
H 2330.21 82.7424 109.024 20382 8875
C 2327.22 82.94629999999999 110.894 20383 8875
H 2329.36 82.3732 111.114 20384 8875
H 2329.13 84.1001 110.748 20385 8875
C 2326.92 81.48099999999999 110.625 20386 8875
H 2326.98 83.18819999999999 111.958 20387 8875
H 2326.59 83.6127 110.306 20388 8875
C 2325.45 81.15049999999999 110.87 20389 8875
H 2327.32 81.108 109.638 20390 8875
H 2327.49 80.8068 111.373 20391 8875
C 2325.05 79.7069 110.304 20392 8875
H 2325.23 81.283 111.926 20393 8875
H 2324.85 81.9294 110.438 20394 8875
C 2323.59 79.3784 110.633 20395 8875
H 2325.22 79.72969999999999 109.174 20396 8875
H 2325.75 78.9807 110.669 20397 8875
C 2322.59 80.24979999999999 109.873 20398 8875
H 2323.39 78.2882 110.581 20399 8875
H 2323.44 79.5535 111.731 20400 8875
C 2322.63 79.9462 108.301 20401 8875
H 2321.55 80.07299999999999 110.183 20402 8875
H 2322.68 81.3417 110.178 20403 8875
C 2321.46 80.74379999999999 107.668 20404 8875
H 2323.63 80.14100000000001 107.871 20405 8875
H 2322.49 78.8121 108.187 20406 8875
C 2321.73 82.2486 107.499 20407 8875
H 2321.21 80.3511 106.655 20408 8875
H 2320.5 80.53060000000001 108.176 20409 8875
H 2322.5 82.4457 106.732 20410 8875
H 2320.88 82.7914 107.054 20411 8875
H 2322.04 82.7762 108.46 20412 8875
C 2332.41 77.1618 105.478 20413 8876
C 2331.23 77.5455 104.564 20414 8876
H 2332.11 76.6157 106.379 20415 8876
H 2333.15 76.4785 104.993 20416 8876
H 2332.92 78.0441 105.929 20417 8876
C 2330.52 76.3013 104.005 20418 8876
H 2330.58 78.34529999999999 105.05 20419 8876
H 2331.63 78.1944 103.747 20420 8876
C 2329.51 75.64830000000001 105.08 20421 8876
H 2329.91 76.6717 103.134 20422 8876
H 2331.18 75.5899 103.541 20423 8876
C 2328.55 74.6593 104.522 20424 8876
H 2330.11 75.13809999999999 105.897 20425 8876
H 2328.9 76.3871 105.648 20426 8876
C 2329.34 73.4491 103.865 20427 8876
H 2327.85 74.19750000000001 105.257 20428 8876
H 2327.78 75.1116 103.839 20429 8876
C 2328.48 72.4098 103.116 20430 8876
H 2330.13 73.7803 103.189 20431 8876
H 2329.92 72.9007 104.638 20432 8876
C 2329.32 71.3302 102.397 20433 8876
H 2327.83 71.9541 103.872 20434 8876
H 2327.78 72.8387 102.321 20435 8876
C 2329.87 71.8969 101.019 20436 8876
H 2330.14 71.0675 103.033 20437 8876
H 2328.67 70.4766 102.34 20438 8876
C 2328.79 72.3069 99.96980000000001 20439 8876
H 2330.56 72.6837 101.162 20440 8876
H 2330.45 71.1572 100.544 20441 8876
C 2329.46 72.636 98.63639999999999 20442 8876
H 2328.08 71.48779999999999 99.8049 20443 8876
H 2328.22 73.08880000000001 100.397 20444 8876
C 2328.34 73.1216 97.6504 20445 8876
H 2330.28 73.38760000000001 98.75579999999999 20446 8876
H 2329.98 71.80110000000001 98.1837 20447 8876
H 2327.72 73.929 98.0663 20448 8876
H 2328.74 73.60129999999999 96.7758 20449 8876
H 2327.67 72.35299999999999 97.2383 20450 8876
C 2682.65 92.4859 122.861 20451 8877
C 2681.85 93.321 123.931 20452 8877
H 2682 91.86109999999999 122.182 20453 8877
H 2683.4 93.0886 122.339 20454 8877
H 2683.35 91.82980000000001 123.366 20455 8877
C 2680.87 94.3908 123.3 20456 8877
H 2681.29 92.7454 124.665 20457 8877
H 2682.58 93.8852 124.575 20458 8877
C 2680.05 95.0159 124.453 20459 8877
H 2681.38 95.0919 122.616 20460 8877
H 2680.14 94.0557 122.53 20461 8877
C 2679.56 96.4662 124.22 20462 8877
H 2679.22 94.35850000000001 124.706 20463 8877
H 2680.66 95.0433 125.357 20464 8877
C 2678.39 96.5634 123.181 20465 8877
H 2679.43 96.9127 125.22 20466 8877
H 2680.35 97.1087 123.901 20467 8877
C 2677.89 98.0234 122.996 20468 8877
H 2678.67 96.1024 122.231 20469 8877
H 2677.54 95.8595 123.412 20470 8877
C 2678.9 98.883 122.165 20471 8877
H 2676.91 97.9923 122.512 20472 8877
H 2677.71 98.455 123.946 20473 8877
C 2678.45 100.116 121.391 20474 8877
H 2679.74 99.1665 122.877 20475 8877
H 2679.4 98.2871 121.408 20476 8877
C 2679.68 100.834 120.659 20477 8877
H 2677.67 99.88509999999999 120.691 20478 8877
H 2677.91 100.814 122.036 20479 8877
C 2680.21 99.9883 119.503 20480 8877
H 2679.49 101.892 120.304 20481 8877
H 2680.54 101.082 121.391 20482 8877
C 2681.11 100.864 118.62 20483 8877
H 2680.62 98.99290000000001 119.82 20484 8877
H 2679.31 99.70910000000001 118.883 20485 8877
H 2680.61 101.763 118.416 20486 8877
H 2682.1 100.988 119.124 20487 8877
H 2681.3 100.34 117.723 20488 8877
C 2538.14 56.7243 54.021 20489 8878
C 2537.39 55.8549 55.0888 20490 8878
H 2539.03 56.2427 53.6508 20491 8878
H 2537.64 56.8676 53.0395 20492 8878
H 2538.31 57.7373 54.3705 20493 8878
C 2537.02 54.5162 54.4439 20494 8878
H 2538.01 55.7598 56.0289 20495 8878
H 2536.49 56.3564 55.4815 20496 8878
C 2536.31 53.4889 55.3558 20497 8878
H 2536.44 54.6878 53.4876 20498 8878
H 2538 54.0723 54.0696 20499 8878
C 2536.35 52.1012 54.6117 20500 8878
H 2536.85 53.4011 56.3165 20501 8878
H 2535.31 53.9056 55.6379 20502 8878
C 2535.3 51.1071 55.0961 20503 8878
H 2536.17 52.3393 53.5517 20504 8878
H 2537.38 51.704 54.6647 20505 8878
C 2534.91 50.1318 53.9396 20506 8878
H 2535.63 50.639 56.0002 20507 8878
H 2534.36 51.665 55.442 20508 8878
C 2536.03 49.5735 52.9926 20509 8878
H 2534.24 49.32 54.339 20510 8878
H 2534.18 50.7125 53.3364 20511 8878
C 2536.87 48.426 53.5523 20512 8878
H 2535.51 49.2356 52.094 20513 8878
H 2536.77 50.3297 52.6799 20514 8878
C 2535.96 47.122 53.7208 20515 8878
H 2537.69 48.2442 52.8478 20516 8878
H 2537.38 48.7897 54.4371 20517 8878
C 2536.59 46.0772 54.6458 20518 8878
H 2534.92 47.3827 53.9616 20519 8878
H 2535.78 46.6542 52.7303 20520 8878
C 2535.7 44.7974 54.6678 20521 8878
H 2537.6 45.8002 54.3567 20522 8878
H 2536.67 46.369 55.7004 20523 8878
H 2535.27 44.5673 53.6419 20524 8878
H 2536.2 43.8539 54.9159 20525 8878
H 2534.86 44.9259 55.3915 20526 8878
C 2537.5 133.48 106.779 20527 8879
C 2538.54 133.864 105.688 20528 8879
H 2537.46 134.318 107.54 20529 8879
H 2536.46 133.273 106.394 20530 8879
H 2537.83 132.56 107.281 20531 8879
C 2538.6 132.782 104.627 20532 8879
H 2538.26 134.844 105.256 20533 8879
H 2539.55 134 106.127 20534 8879
C 2539.88 132.973 103.659 20535 8879
H 2538.69 131.761 105.08 20536 8879
H 2537.67 132.791 104.055 20537 8879
C 2540.27 131.664 102.994 20538 8879
H 2539.62 133.788 102.942 20539 8879
H 2540.7 133.389 104.213 20540 8879
C 2541.46 131.871 102.025 20541 8879
H 2540.48 130.888 103.732 20542 8879
H 2539.42 131.193 102.455 20543 8879
C 2542.81 132.09 102.797 20544 8879
H 2541.48 130.993 101.359 20545 8879
H 2541.24 132.702 101.372 20546 8879
C 2543.28 133.56 102.608 20547 8879
H 2542.6 131.923 103.866 20548 8879
H 2543.6 131.423 102.467 20549 8879
C 2544.31 134.043 103.704 20550 8879
H 2543.69 133.735 101.6 20551 8879
H 2542.44 134.23 102.698 20552 8879
C 2544.8 135.484 103.459 20553 8879
H 2543.91 133.851 104.711 20554 8879
H 2545.17 133.408 103.638 20555 8879
C 2545.64 136.149 104.589 20556 8879
H 2545.4 135.493 102.499 20557 8879
H 2544 136.157 103.16 20558 8879
C 2545.91 137.638 104.219 20559 8879
H 2545.1 136.159 105.525 20560 8879
H 2546.52 135.55 104.86 20561 8879
H 2545.01 138.228 104.276 20562 8879
H 2546.63 138.121 104.873 20563 8879
H 2546.31 137.844 103.23 20564 8879
C 2376.38 38.3359 145.861 20565 8880
C 2375 38.4466 146.612 20566 8880
H 2377.22 38.3821 146.593 20567 8880
H 2376.49 37.4618 145.116 20568 8880
H 2376.65 39.1816 145.2 20569 8880
C 2374.85 37.3144 147.675 20570 8880
H 2374.9 39.47 147.067 20571 8880
H 2374.26 38.326 145.876 20572 8880
C 2373.58 37.4819 148.54 20573 8880
H 2374.9 36.3193 147.228 20574 8880
H 2375.76 37.2234 148.303 20575 8880
C 2373.51 36.3603 149.581 20576 8880
H 2373.49 38.4904 148.972 20577 8880
H 2372.68 37.3819 147.889 20578 8880
C 2372.08 36.1291 0.242915 20579 8880
H 2373.98 35.4092 149.296 20580 8880
H 2374.22 36.6779 0.415296 20581 8880
C 2372.26 35.8937 1.76111 20582 8880
H 2371.4 36.9401 149.994 20583 8880
H 2371.57 35.2588 149.795 20584 8880
C 2370.84 35.8567 2.31437 20585 8880
H 2372.72 34.9188 2.05148 20586 8880
H 2372.9 36.6212 2.28286 20587 8880
C 2370.38 37.3594 2.65405 20588 8880
H 2370.07 35.3042 1.6476 20589 8880
H 2370.78 35.1585 3.20944 20590 8880
C 2369.07 37.2295 3.40974 20591 8880
H 2371.14 37.885 3.23638 20592 8880
H 2370.24 38.0121 1.75202 20593 8880
C 2368.67 38.6349 3.94324 20594 8880
H 2368.32 36.7335 2.77603 20595 8880
H 2369.1 36.5428 4.23318 20596 8880
C 2367.16 38.6374 4.38225 20597 8880
H 2369.33 38.9835 4.74149 20598 8880
H 2368.75 39.3489 3.12303 20599 8880
H 2366.8 39.6051 4.72365 20600 8880
H 2366.49 38.3972 3.55611 20601 8880
H 2366.98 38.0189 5.28259 20602 8880
C 2498.85 132.313 99.7634 20603 8881
C 2498.65 130.934 99.0205 20604 8881
H 2498.59 133.203 99.119 20605 8881
H 2498.25 132.275 100.672 20606 8881
H 2499.88 132.449 100.092 20607 8881
C 2497.54 130.786 97.92149999999999 20608 8881
H 2499.65 130.834 98.56059999999999 20609 8881
H 2498.67 130.083 99.71810000000001 20610 8881
C 2496.35 129.909 98.3355 20611 8881
H 2497.25 131.716 97.48690000000001 20612 8881
H 2498.01 130.268 97.066 20613 8881
C 2495.45 129.471 97.1284 20614 8881
H 2496.78 128.987 98.8242 20615 8881
H 2495.83 130.459 99.15730000000001 20616 8881
C 2494.16 128.727 97.6003 20617 8881
H 2495.24 130.29 96.4367 20618 8881
H 2496.01 128.821 96.4384 20619 8881
C 2493.16 129.705 98.0934 20620 8881
H 2493.81 128.025 96.8802 20621 8881
H 2494.45 128.041 98.3874 20622 8881
C 2491.6 129.312 98.0104 20623 8881
H 2493.39 129.995 99.0988 20624 8881
H 2493.2 130.621 97.48820000000001 20625 8881
C 2491.3 128.13 98.96420000000001 20626 8881
H 2490.96 130.161 98.22 20627 8881
H 2491.36 129.018 96.9349 20628 8881
C 2489.91 127.56 98.72410000000001 20629 8881
H 2492.01 127.292 98.7779 20630 8881
H 2491.53 128.396 99.9832 20631 8881
C 2489.66 126.268 99.5697 20632 8881
H 2489.16 128.343 99.0035 20633 8881
H 2489.74 127.362 97.63339999999999 20634 8881
C 2488.15 125.889 99.623 20635 8881
H 2490.21 125.398 99.15860000000001 20636 8881
H 2490.1 126.421 100.575 20637 8881
H 2487.89 125.543 98.6448 20638 8881
H 2487.86 125.082 100.31 20639 8881
H 2487.51 126.762 99.8489 20640 8881
C 2776.17 148.464 96.6121 20641 8882
C 2775.05 147.776 97.3946 20642 8882
H 2775.89 149.411 96.0407 20643 8882
H 2776.97 148.752 97.3553 20644 8882
H 2776.64 147.738 95.9247 20645 8882
C 2774.06 148.813 98.0231 20646 8882
H 2774.45 147.058 96.74550000000001 20647 8882
H 2775.41 147.06 98.1691 20648 8882
C 2773.18 148.204 99.1377 20649 8882
H 2774.63 149.649 98.4064 20650 8882
H 2773.44 149.301 97.30889999999999 20651 8882
C 2771.87 147.461 98.62909999999999 20652 8882
H 2773.77 147.524 99.831 20653 8882
H 2772.83 148.924 99.86069999999999 20654 8882
C 2771.05 147.126 99.8793 20655 8882
H 2771.37 148.056 97.8961 20656 8882
H 2772.14 146.555 98.1194 20657 8882
C 2769.62 146.69 99.34950000000001 20658 8882
H 2771.54 146.375 100.51 20659 8882
H 2770.86 148.025 100.469 20660 8882
C 2769.64 145.419 98.3998 20661 8882
H 2768.99 146.577 100.253 20662 8882
H 2769.12 147.477 98.7094 20663 8882
C 2770.08 144.125 99.1125 20664 8882
H 2768.65 145.241 97.9718 20665 8882
H 2770.27 145.586 97.49890000000001 20666 8882
C 2769.15 143.706 100.254 20667 8882
H 2770.19 143.288 98.3723 20668 8882
H 2771.13 144.323 99.4691 20669 8882
C 2769.78 142.565 101.129 20670 8882
H 2768.94 144.55 100.912 20671 8882
H 2768.16 143.308 99.9421 20672 8882
C 2768.92 142.37 102.425 20673 8882
H 2769.89 141.686 100.505 20674 8882
H 2770.79 142.864 101.452 20675 8882
H 2768.97 143.291 103.069 20676 8882
H 2767.84 142.254 102.142 20677 8882
H 2769.21 141.521 103.041 20678 8882
C 2610.4 112.36 67.73180000000001 20679 8883
C 2609.77 111.641 68.9811 20680 8883
H 2610.17 111.908 66.8154 20681 8883
H 2610.01 113.404 67.6656 20682 8883
H 2611.51 112.389 67.7238 20683 8883
C 2608.31 111.99 69.1888 20684 8883
H 2609.86 110.513 68.83199999999999 20685 8883
H 2610.35 111.863 69.90860000000001 20686 8883
C 2607.48 111.197 70.2653 20687 8883
H 2608.29 113.12 69.3557 20688 8883
H 2607.8 111.885 68.2563 20689 8883
C 2606.01 111.744 70.3242 20690 8883
H 2607.45 110.141 70.02460000000001 20691 8883
H 2607.96 111.326 71.2332 20692 8883
C 2605.16 111.472 69.0484 20693 8883
H 2605.51 111.326 71.2509 20694 8883
H 2605.97 112.828 70.50490000000001 20695 8883
C 2605.4 110.038 68.467 20696 8883
H 2604.11 111.652 69.2891 20697 8883
H 2605.39 112.195 68.2105 20698 8883
C 2604.4 109.741 67.3777 20699 8883
H 2606.43 110.028 68.0133 20700 8883
H 2605.41 109.292 69.2465 20701 8883
C 2604.82 108.544 66.4616 20702 8883
H 2603.4 109.663 67.773 20703 8883
H 2604.39 110.635 66.79130000000001 20704 8883
C 2604.42 108.648 64.95099999999999 20705 8883
H 2605.88 108.363 66.5299 20706 8883
H 2604.37 107.596 66.8459 20707 8883
C 2605.16 107.632 64.0406 20708 8883
H 2603.33 108.427 64.86490000000001 20709 8883
H 2604.49 109.684 64.59 20710 8883
C 2604.99 108.123 62.5436 20711 8883
H 2606.22 107.651 64.3412 20712 8883
H 2604.78 106.601 64.1763 20713 8883
H 2605.37 109.138 62.4027 20714 8883
H 2605.66 107.534 61.9008 20715 8883
H 2603.95 107.969 62.2626 20716 8883
C 2742.78 40.0941 121.249 20717 8884
C 2744.09 39.3307 120.835 20718 8884
H 2743 41.0693 121.6 20719 8884
H 2742.02 40.2126 120.452 20720 8884
H 2742.34 39.621 122.096 20721 8884
C 2744.73 39.8764 119.498 20722 8884
H 2744.8 39.3933 121.639 20723 8884
H 2743.95 38.2562 120.786 20724 8884
C 2746.11 39.1829 119.453 20725 8884
H 2744.08 39.7846 118.597 20726 8884
H 2744.82 41.0172 119.547 20727 8884
C 2747.06 39.6771 118.373 20728 8884
H 2746.63 39.2742 120.42 20729 8884
H 2745.93 38.0731 119.414 20730 8884
C 2748.47 39.143 118.686 20731 8884
H 2746.72 39.3894 117.375 20732 8884
H 2747.06 40.7404 118.225 20733 8884
C 2749.29 40.1797 119.606 20734 8884
H 2748.46 38.1763 119.113 20735 8884
H 2748.99 38.9314 117.74 20736 8884
C 2750.69 39.6964 119.781 20737 8884
H 2749.3 41.2229 119.198 20738 8884
H 2748.84 40.2621 120.596 20739 8884
C 2751.55 40.7692 120.555 20740 8884
H 2750.73 38.6825 120.262 20741 8884
H 2751.18 39.4679 118.823 20742 8884
C 2751.18 40.8039 122.059 20743 8884
H 2752.62 40.5202 120.398 20744 8884
H 2751.39 41.7574 120.039 20745 8884
C 2752.19 41.6317 122.845 20746 8884
H 2750.2 41.2012 122.254 20747 8884
H 2751.15 39.8613 122.532 20748 8884
C 2751.65 41.7608 124.327 20749 8884
H 2753.21 41.233 122.874 20750 8884
H 2752.3 42.5885 122.385 20751 8884
H 2752.35 42.3835 124.927 20752 8884
H 2750.71 42.2699 124.275 20753 8884
H 2751.55 40.7806 124.853 20754 8884
C 2856.93 77.67959999999999 3.79001 20755 8885
C 2857.94 78.24160000000001 2.77126 20756 8885
H 2857.35 77.1408 4.68462 20757 8885
H 2856.31 78.54600000000001 4.16474 20758 8885
H 2856.19 76.97669999999999 3.40103 20759 8885
C 2857.37 79.08410000000001 1.65456 20760 8885
H 2858.73 78.7401 3.37016 20761 8885
H 2858.43 77.3295 2.41281 20762 8885
C 2858.39 79.41119999999999 0.5023260000000001 20763 8885
H 2856.43 78.6074 1.29675 20764 8885
H 2857.01 80.0258 2.08658 20765 8885
C 2857.76 80.3968 149.484 20766 8885
H 2859.37 79.864 0.773724 20767 8885
H 2858.58 78.4044 149.98 20768 8885
C 2858.68 80.6041 148.253 20769 8885
H 2856.82 80.0424 149.123 20770 8885
H 2857.48 81.4087 149.953 20771 8885
C 2858.54 79.5008 147.166 20772 8885
H 2858.53 81.5911 147.731 20773 8885
H 2859.71 80.71250000000001 148.605 20774 8885
C 2859.6 79.5994 146.035 20775 8885
H 2858.46 78.5 147.602 20776 8885
H 2857.55 79.6401 146.71 20777 8885
C 2859.48 78.4498 145.035 20778 8885
H 2859.55 80.57129999999999 145.518 20779 8885
H 2860.63 79.6842 146.538 20780 8885
C 2857.98 78.3438 144.473 20781 8885
H 2860.18 78.6215 144.186 20782 8885
H 2859.81 77.5313 145.53 20783 8885
C 2858 77.12309999999999 143.549 20784 8885
H 2857.28 78.18989999999999 145.322 20785 8885
H 2857.66 79.22320000000001 143.887 20786 8885
C 2856.53 76.83029999999999 143.148 20787 8885
H 2858.59 77.2513 142.689 20788 8885
H 2858.44 76.2641 144.065 20789 8885
H 2856.47 75.9115 142.518 20790 8885
H 2855.86 76.7607 143.977 20791 8885
H 2856.08 77.6369 142.558 20792 8885
C 2450.63 39.1635 87.31189999999999 20793 8886
C 2451.2 40.5636 87.0591 20794 8886
H 2450.6 38.5325 86.40600000000001 20795 8886
H 2451.12 38.6745 88.1815 20796 8886
H 2449.57 39.282 87.6862 20797 8886
C 2452.71 40.6548 86.75360000000001 20798 8886
H 2450.62 41.0182 86.22580000000001 20799 8886
H 2450.93 41.226 87.8809 20800 8886
C 2453.32 42.0599 86.8336 20801 8886
H 2453.24 40.0238 87.4798 20802 8886
H 2452.97 40.2068 85.8165 20803 8886
C 2454.91 42.0364 87.08110000000001 20804 8886
H 2453.08 42.6578 85.9452 20805 8886
H 2452.85 42.6251 87.6758 20806 8886
C 2455.69 43.3206 86.8533 20807 8886
H 2455.13 41.6034 88.0735 20808 8886
H 2455.31 41.2322 86.44589999999999 20809 8886
C 2455.43 44.3004 88.0291 20810 8886
H 2456.78 43.0658 86.77630000000001 20811 8886
H 2455.46 43.8119 85.8818 20812 8886
C 2456.02 45.6701 87.5925 20813 8886
H 2454.32 44.3576 88.2253 20814 8886
H 2455.86 43.9876 88.95780000000001 20815 8886
C 2456.06 46.593 88.8593 20816 8886
H 2457.02 45.5344 87.17270000000001 20817 8886
H 2455.48 46.165 86.7764 20818 8886
C 2456.57 48.0215 88.50879999999999 20819 8886
H 2455.08 46.63 89.3339 20820 8886
H 2456.75 46.1728 89.6443 20821 8886
C 2456.89 48.781 89.80710000000001 20822 8886
H 2457.4 47.9607 87.789 20823 8886
H 2455.82 48.5804 87.9552 20824 8886
C 2457.3 50.2533 89.6169 20825 8886
H 2456.01 48.7437 90.4851 20826 8886
H 2457.69 48.2731 90.32510000000001 20827 8886
H 2457.09 50.8376 90.5401 20828 8886
H 2458.39 50.407 89.3781 20829 8886
H 2456.72 50.7584 88.8335 20830 8886
C 3053.43 40.1838 137.311 20831 8887
C 3053.15 39.1777 136.159 20832 8887
H 3054.4 39.9678 137.831 20833 8887
H 3053.47 41.25 137.043 20834 8887
H 3052.68 40.1645 138.15 20835 8887
C 3053.06 37.6933 136.464 20836 8887
H 3052.29 39.5324 135.594 20837 8887
H 3053.91 39.3907 135.382 20838 8887
C 3052.74 36.9124 135.116 20839 8887
H 3054.02 37.2768 136.783 20840 8887
H 3052.3 37.5523 137.309 20841 8887
C 3052.33 35.4341 135.312 20842 8887
H 3052.04 37.5457 134.53 20843 8887
H 3053.7 36.9203 134.621 20844 8887
C 3051.92 34.942 133.894 20845 8887
H 3053.09 34.8945 135.897 20846 8887
H 3051.45 35.4819 136.024 20847 8887
C 3051.25 33.5097 133.889 20848 8887
H 3051.19 35.6362 133.409 20849 8887
H 3052.82 35.0251 133.226 20850 8887
C 3049.78 33.4475 134.426 20851 8887
H 3051.33 32.933 132.975 20852 8887
H 3051.99 32.9704 134.483 20853 8887
C 3049.2 32.1743 133.907 20854 8887
H 3049.73 33.506 135.528 20855 8887
H 3049.26 34.3884 134.101 20856 8887
C 3047.61 32.1622 133.966 20857 8887
H 3049.53 31.8723 132.893 20858 8887
H 3049.63 31.2589 134.406 20859 8887
C 3047.1 30.7072 133.954 20860 8887
H 3047.28 32.6415 134.893 20861 8887
H 3047.14 32.7469 133.138 20862 8887
C 3045.64 30.6417 133.469 20863 8887
H 3047.74 30.1109 133.303 20864 8887
H 3047.29 30.2773 134.947 20865 8887
H 3045.03 31.1873 134.171 20866 8887
H 3045.56 31.1903 132.522 20867 8887
H 3045.25 29.5909 133.316 20868 8887
C 2900.07 22.7239 113.919 20869 8888
C 2901.48 23.2032 114.445 20870 8888
H 2899.84 23.0522 112.85 20871 8888
H 2899.93 21.6165 113.917 20872 8888
H 2899.3 23.0651 114.574 20873 8888
C 2902.57 22.317 113.796 20874 8888
H 2901.71 24.2728 114.188 20875 8888
H 2901.48 23.1921 115.547 20876 8888
C 2903.95 22.7781 114.327 20877 8888
H 2902.46 21.2185 114.013 20878 8888
H 2902.44 22.4933 112.704 20879 8888
C 2904.99 21.6473 114.019 20880 8888
H 2904.19 23.7662 113.939 20881 8888
H 2903.89 23.0594 115.371 20882 8888
C 2906.5 22.0124 114.19 20883 8888
H 2904.66 20.7549 114.585 20884 8888
H 2904.8 21.4157 112.963 20885 8888
C 2907.46 20.8276 113.909 20886 8888
H 2906.78 22.8822 113.503 20887 8888
H 2906.69 22.4039 115.21 20888 8888
C 2908.92 21.2192 114.073 20889 8888
H 2907.22 19.9716 114.548 20890 8888
H 2907.25 20.4236 112.893 20891 8888
C 2909.93 20.1964 113.488 20892 8888
H 2909.06 22.2286 113.73 20893 8888
H 2909.1 21.3701 115.135 20894 8888
C 2909.79 18.7625 114.06 20895 8888
H 2909.66 20.1615 112.423 20896 8888
H 2910.97 20.577 113.553 20897 8888
C 2911.02 17.9455 113.646 20898 8888
H 2909.71 18.8122 115.158 20899 8888
H 2908.87 18.3169 113.688 20900 8888
C 2910.7 17.0923 112.389 20901 8888
H 2911.92 18.5672 113.558 20902 8888
H 2911.32 17.262 114.47 20903 8888
H 2911.56 16.4649 112.092 20904 8888
H 2909.78 16.5234 112.544 20905 8888
H 2910.51 17.7325 111.466 20906 8888
C 2877.72 117.21 72.38379999999999 20907 8889
C 2877.84 116.033 73.37009999999999 20908 8889
H 2876.73 117.561 72.1844 20909 8889
H 2878.3 118.096 72.69289999999999 20910 8889
H 2878.03 116.899 71.3716 20911 8889
C 2877.25 116.473 74.7376 20912 8889
H 2877.31 115.1 73.0617 20913 8889
H 2878.87 115.682 73.4645 20914 8889
C 2877.47 115.462 75.9126 20915 8889
H 2877.83 117.366 75.0373 20916 8889
H 2876.23 116.886 74.705 20917 8889
C 2876.2 115.516 76.8068 20918 8889
H 2877.73 114.459 75.56489999999999 20919 8889
H 2878.35 115.727 76.4281 20920 8889
C 2876.4 114.721 78.1429 20921 8889
H 2876 116.626 77.01479999999999 20922 8889
H 2875.3 115.207 76.27970000000001 20923 8889
C 2876.38 113.194 77.8673 20924 8889
H 2877.33 115.067 78.6589 20925 8889
H 2875.61 114.993 78.8978 20926 8889
C 2875.04 112.456 78.2205 20927 8889
H 2876.66 113.053 76.83329999999999 20928 8889
H 2877.26 112.773 78.4396 20929 8889
C 2875.25 110.898 78.25530000000001 20930 8889
H 2874.7 112.778 79.18899999999999 20931 8889
H 2874.22 112.777 77.5902 20932 8889
C 2875.36 110.441 76.7833 20933 8889
H 2876.09 110.608 78.91459999999999 20934 8889
H 2874.33 110.451 78.6435 20935 8889
C 2875.33 108.881 76.5017 20936 8889
H 2874.6 110.907 76.1947 20937 8889
H 2876.29 110.829 76.349 20938 8889
C 2875.56 108.558 74.9949 20939 8889
H 2876 108.339 77.1698 20940 8889
H 2874.33 108.497 76.74769999999999 20941 8889
H 2875.3 107.49 74.7697 20942 8889
H 2874.97 109.125 74.2724 20943 8889
H 2876.6 108.642 74.70489999999999 20944 8889
C 2903.74 15.3871 106.616 20945 8890
C 2904.47 16.7132 106.137 20946 8890
H 2903.6 14.7561 105.773 20947 8890
H 2904.45 14.9483 107.316 20948 8890
H 2902.8 15.5081 107.182 20949 8890
C 2904.73 17.7554 107.254 20950 8890
H 2905.4 16.437 105.59 20951 8890
H 2903.76 17.1078 105.385 20952 8890
C 2905.63 18.8532 106.71 20953 8890
H 2903.7 18.1926 107.452 20954 8890
H 2905.06 17.4073 108.301 20955 8890
C 2905.83 19.9733 107.834 20956 8890
H 2906.61 18.483 106.414 20957 8890
H 2905.25 19.294 105.756 20958 8890
C 2906.9 21.0305 107.382 20959 8890
H 2904.87 20.4319 107.898 20960 8890
H 2905.95 19.6079 108.888 20961 8890
C 2908.37 20.7401 107.826 20962 8890
H 2906.88 21.0183 106.29 20963 8890
H 2906.59 22.0448 107.692 20964 8890
C 2909.25 21.8793 107.298 20965 8890
H 2908.36 20.6939 108.965 20966 8890
H 2908.6 19.6792 107.525 20967 8890
C 2910.61 21.7443 108.131 20968 8890
H 2909.3 21.8822 106.212 20969 8890
H 2908.78 22.8192 107.554 20970 8890
C 2911.61 22.9015 107.904 20971 8890
H 2910.26 21.7751 109.149 20972 8890
H 2911.11 20.8236 107.936 20973 8890
C 2912.9 22.8212 108.778 20974 8890
H 2911.83 22.8971 106.827 20975 8890
H 2911.11 23.8674 108.019 20976 8890
C 2913.85 23.987 108.364 20977 8890
H 2912.71 22.737 109.816 20978 8890
H 2913.45 21.836 108.594 20979 8890
H 2914.33 23.7824 107.385 20980 8890
H 2913.34 25.0145 108.325 20981 8890
H 2914.64 24.1696 109.091 20982 8890
C 3010.37 0.73421 83.5771 20983 8891
C 3010.97 1.61681 82.4472 20984 8891
H 3010.62 1.20722 84.5594 20985 8891
H 3009.26 0.644533 83.5889 20986 8891
H 3010.81 149.661 83.5825 20987 8891
C 3010.49 3.0662 82.6387 20988 8891
H 3012.06 1.48762 82.3199 20989 8891
H 3010.56 1.16017 81.5277 20990 8891
C 3008.97 3.35913 82.2826 20991 8891
H 3010.67 3.41879 83.6784 20992 8891
H 3011.06 3.75105 81.9931 20993 8891
C 3008.69 3.29561 80.7646 20994 8891
H 3008.31 2.69577 82.8412 20995 8891
H 3008.67 4.31381 82.6793 20996 8891
C 3007.21 3.3165 80.44029999999999 20997 8891
H 3009.26 4.19772 80.3485 20998 8891
H 3009.07 2.39383 80.2547 20999 8891
C 3006.94 3.41201 78.8845 21000 8891
H 3006.75 2.44543 80.8455 21001 8891
H 3006.73 4.14643 81.0382 21002 8891
C 3005.44 3.19582 78.5808 21003 8891
H 3007.32 4.36467 78.491 21004 8891
H 3007.51 2.65554 78.3809 21005 8891
C 3005.15 3.41392 77.0658 21006 8891
H 3005.12 2.22526 78.83459999999999 21007 8891
H 3004.85 3.89245 79.194 21008 8891
C 3004.67 4.8229 76.678 21009 8891
H 3006.05 3.11079 76.5167 21010 8891
H 3004.44 2.61803 76.7623 21011 8891
C 3004.85 4.99104 75.17489999999999 21012 8891
H 3003.61 4.97871 76.93470000000001 21013 8891
H 3005.17 5.58687 77.19799999999999 21014 8891
C 3003.85 5.985 74.5189 21015 8891
H 3005.88 5.25724 74.913 21016 8891
H 3004.75 4.04494 74.67140000000001 21017 8891
H 3002.79 5.73988 74.6032 21018 8891
H 3003.99 7.03187 74.8938 21019 8891
H 3004.11 6.11311 73.45910000000001 21020 8891
C 3098.7 132.301 123.99 21021 8892
C 3099.73 133.112 124.779 21022 8892
H 3097.74 132.147 124.521 21023 8892
H 3098.49 132.737 123.005 21024 8892
H 3099.05 131.305 123.767 21025 8892
C 3100.03 132.357 126.081 21026 8892
H 3100.69 133.35 124.252 21027 8892
H 3099.36 134.116 125.054 21028 8892
C 3101.07 133.132 127.009 21029 8892
H 3099.08 132.168 126.675 21030 8892
H 3100.3 131.33 125.768 21031 8892
C 3100.44 134.302 127.755 21032 8892
H 3101.55 132.43 127.626 21033 8892
H 3101.94 133.405 126.368 21034 8892
C 3101.46 135.088 128.656 21035 8892
H 3099.9 134.909 127.008 21036 8892
H 3099.55 133.951 128.326 21037 8892
C 3101.56 134.558 130.117 21038 8892
H 3102.44 135.176 128.132 21039 8892
H 3101.21 136.173 128.665 21040 8892
C 3102.67 135.324 130.904 21041 8892
H 3100.6 134.553 130.691 21042 8892
H 3101.8 133.49 130.05 21043 8892
C 3102.55 136.854 130.735 21044 8892
H 3102.71 135.03 131.97 21045 8892
H 3103.62 134.984 130.577 21046 8892
C 3103.85 137.629 131.149 21047 8892
H 3102.26 137.205 129.705 21048 8892
H 3101.66 137.123 131.34 21049 8892
C 3103.75 139.195 131.12 21050 8892
H 3104.12 137.324 132.228 21051 8892
H 3104.65 137.267 130.504 21052 8892
C 3105.1 139.963 131.232 21053 8892
H 3103.14 139.467 130.246 21054 8892
H 3103.05 139.521 131.913 21055 8892
H 3105.71 139.829 130.351 21056 8892
H 3104.99 140.973 131.455 21057 8892
H 3105.72 139.62 132.068 21058 8892
C 2880.49 32.3387 95.0899 21059 8893
C 2879.06 32.7703 95.4885 21060 8893
H 2880.73 32.4771 94.057 21061 8893
H 2881.29 32.8819 95.675 21062 8893
H 2880.73 31.2648 95.2299 21063 8893
C 2878.74 34.2699 95.2672 21064 8893
H 2878.33 32.1191 95.02290000000001 21065 8893
H 2878.94 32.4276 96.5377 21066 8893
C 2877.26 34.6532 95.5376 21067 8893
H 2879.37 34.8678 95.90940000000001 21068 8893
H 2878.96 34.5761 94.2617 21069 8893
C 2877.1 36.193 95.5373 21070 8893
H 2876.57 34.1344 94.86190000000001 21071 8893
H 2877.02 34.2807 96.5273 21072 8893
C 2875.71 36.5656 96.2122 21073 8893
H 2877.95 36.6581 96.1163 21074 8893
H 2877.21 36.5636 94.5254 21075 8893
C 2875.34 38.0205 95.902 21076 8893
H 2874.91 35.8601 95.97029999999999 21077 8893
H 2875.82 36.5152 97.28440000000001 21078 8893
C 2874.24 38.6399 96.8304 21079 8893
H 2876.26 38.562 96.1307 21080 8893
H 2875.19 38.2759 94.8365 21081 8893
C 2874.29 40.193 96.81019999999999 21082 8893
H 2873.29 38.2543 96.46810000000001 21083 8893
H 2874.31 38.2287 97.8723 21084 8893
C 2873.03 40.715 97.51519999999999 21085 8893
H 2875.18 40.5105 97.3249 21086 8893
H 2874.44 40.6056 95.77460000000001 21087 8893
C 2873.09 42.2494 97.79049999999999 21088 8893
H 2872.12 40.5327 96.8978 21089 8893
H 2872.84 40.2191 98.43340000000001 21090 8893
C 2874.22 42.6686 98.7728 21091 8893
H 2873.23 42.8315 96.8869 21092 8893
H 2872.11 42.6219 98.2088 21093 8893
H 2875.23 42.4644 98.3344 21094 8893
H 2874.19 43.6855 98.9961 21095 8893
H 2874.21 42.0644 99.6902 21096 8893
C 3107.84 135.736 126.996 21097 8894
C 3107.98 135.504 125.459 21098 8894
H 3108.81 135.733 127.512 21099 8894
H 3107.46 136.738 127.247 21100 8894
H 3107.18 134.962 127.49 21101 8894
C 3108.69 136.657 124.656 21102 8894
H 3108.5 134.567 125.152 21103 8894
H 3106.93 135.431 125.165 21104 8894
C 3107.96 137.998 124.831 21105 8894
H 3109.71 136.797 124.988 21106 8894
H 3108.75 136.341 123.603 21107 8894
C 3106.57 138.074 124.119 21108 8894
H 3107.74 138.259 125.857 21109 8894
H 3108.67 138.806 124.463 21110 8894
C 3105.94 139.484 124.342 21111 8894
H 3106.68 137.811 123.046 21112 8894
H 3105.89 137.298 124.523 21113 8894
C 3104.37 139.455 124.289 21114 8894
H 3106.29 139.919 125.296 21115 8894
H 3106.33 140.166 123.512 21116 8894
C 3103.83 140.756 124.853 21117 8894
H 3104.03 139.293 123.268 21118 8894
H 3103.95 138.554 124.813 21119 8894
C 3102.28 141.086 124.633 21120 8894
H 3104.02 140.788 125.968 21121 8894
H 3104.37 141.618 124.473 21122 8894
C 3101.83 142.41 125.275 21123 8894
H 3102 141.043 123.614 21124 8894
H 3101.71 140.262 125.066 21125 8894
C 3100.37 142.744 124.882 21126 8894
H 3101.86 142.269 126.37 21127 8894
H 3102.51 143.254 125.193 21128 8894
C 3099.41 141.643 125.499 21129 8894
H 3100.09 143.725 125.303 21130 8894
H 3100.21 142.782 123.782 21131 8894
H 3098.41 141.754 125.096 21132 8894
H 3099.68 140.652 125.21 21133 8894
H 3099.36 141.667 126.569 21134 8894
C 2927.84 97.26479999999999 127.198 21135 8895
C 2928.25 95.8441 127.709 21136 8895
H 2927.61 97.3419 126.129 21137 8895
H 2926.94 97.6742 127.69 21138 8895
H 2928.61 98.00960000000001 127.427 21139 8895
C 2929.7 95.3447 127.446 21140 8895
H 2927.96 95.7925 128.748 21141 8895
H 2927.59 95.1093 127.199 21142 8895
C 2930.14 94.5201 128.64 21143 8895
H 2929.77 94.8747 126.473 21144 8895
H 2930.39 96.17359999999999 127.341 21145 8895
C 2931.71 94.30840000000001 128.654 21146 8895
H 2929.83 95.01860000000001 129.538 21147 8895
H 2929.63 93.5527 128.701 21148 8895
C 2932.11 93.419 129.776 21149 8895
H 2932.1 93.8914 127.686 21150 8895
H 2932.2 95.3302 128.666 21151 8895
C 2933.65 93.43600000000001 129.982 21152 8895
H 2931.58 93.71169999999999 130.731 21153 8895
H 2931.71 92.3927 129.565 21154 8895
C 2934.14 92.5249 131.138 21155 8895
H 2934.23 93.26860000000001 129.07 21156 8895
H 2933.95 94.48399999999999 130.2 21157 8895
C 2933.9 93.2145 132.529 21158 8895
H 2933.73 91.4927 131.119 21159 8895
H 2935.23 92.27800000000001 130.901 21160 8895
C 2934.17 92.2334 133.756 21161 8895
H 2934.56 94.1123 132.617 21162 8895
H 2932.9 93.6247 132.576 21163 8895
C 2934.26 92.94240000000001 135.117 21164 8895
H 2933.52 91.3155 133.797 21165 8895
H 2935.14 91.7059 133.623 21166 8895
C 2933.08 93.8639 135.401 21167 8895
H 2934.41 92.1571 135.897 21168 8895
H 2935.18 93.5522 135.161 21169 8895
H 2932.17 93.30970000000001 135.574 21170 8895
H 2933.2 94.43000000000001 136.376 21171 8895
H 2932.86 94.5779 134.588 21172 8895
C 3072.85 64.2419 23.1668 21173 8896
C 3073.39 63.45 24.3868 21174 8896
H 3071.98 63.7792 22.6943 21175 8896
H 3072.63 65.3075 23.4102 21176 8896
H 3073.62 64.41240000000001 22.3589 21177 8896
C 3074.24 62.2358 24.0595 21178 8896
H 3074.08 64.1238 24.9188 21179 8896
H 3072.62 63.2473 25.1462 21180 8896
C 3075.18 61.7747 25.2984 21181 8896
H 3073.52 61.4747 23.7728 21182 8896
H 3074.83 62.3754 23.1161 21183 8896
C 3075.79 60.3982 25.1405 21184 8896
H 3076 62.481 25.4143 21185 8896
H 3074.57 61.9356 26.2176 21186 8896
C 3076.86 60.0278 26.1948 21187 8896
H 3075.02 59.582 24.9937 21188 8896
H 3076.31 60.3273 24.2291 21189 8896
C 3077.38 58.5544 25.8737 21190 8896
H 3077.63 60.8617 26.265 21191 8896
H 3076.4 60.0376 27.1668 21192 8896
C 3078.35 58.016 26.9177 21193 8896
H 3076.54 57.8212 25.8021 21194 8896
H 3077.78 58.6174 24.8561 21195 8896
C 3078.65 56.5281 26.6516 21196 8896
H 3079.23 58.6801 26.9786 21197 8896
H 3077.95 58.1407 27.9074 21198 8896
C 3079.74 56.0151 27.7013 21199 8896
H 3077.7 55.8992 26.6608 21200 8896
H 3079.01 56.3495 25.6387 21201 8896
C 3079.87 54.4437 27.7187 21202 8896
H 3080.72 56.484 27.5435 21203 8896
H 3079.52 56.3588 28.736 21204 8896
C 3078.84 53.8971 28.7774 21205 8896
H 3079.63 54.0373 26.7303 21206 8896
H 3080.95 54.1462 27.8357 21207 8896
H 3078.93 54.3803 29.7937 21208 8896
H 3077.8 53.8991 28.4678 21209 8896
H 3079.09 52.796 28.9195 21210 8896
C 3191.28 122.435 4.52878 21211 8897
C 3189.72 122.145 4.67511 21212 8897
H 3191.38 123.465 4.17999 21213 8897
H 3191.88 122.393 5.43413 21214 8897
H 3191.79 121.806 3.8183 21215 8897
C 3189.06 123.179 5.64548 21216 8897
H 3189.18 122.227 3.69763 21217 8897
H 3189.55 121.158 5.07473 21218 8897
C 3187.6 122.907 5.8257 21219 8897
H 3189.57 123.244 6.63662 21220 8897
H 3189.22 124.172 5.20984 21221 8897
C 3186.97 123.917 6.84296 21222 8897
H 3187.01 122.843 4.90974 21223 8897
H 3187.49 121.879 6.19286 21224 8897
C 3186.73 125.265 6.09437 21225 8897
H 3186.04 123.379 7.26671 21226 8897
H 3187.54 124.104 7.73921 21227 8897
C 3185.34 125.204 5.36061 21228 8897
H 3186.73 126.106 6.80918 21229 8897
H 3187.52 125.468 5.38866 21230 8897
C 3184.08 124.935 6.22611 21231 8897
H 3185.32 126.128 4.79086 21232 8897
H 3185.41 124.542 4.52719 21233 8897
C 3182.82 124.973 5.23355 21234 8897
H 3184.11 123.968 6.7711 21235 8897
H 3184.11 125.686 6.99966 21236 8897
C 3181.55 124.912 6.05839 21237 8897
H 3182.85 125.908 4.69481 21238 8897
H 3182.87 124.2 4.48778 21239 8897
C 3181.4 123.493 6.68458 21240 8897
H 3181.48 125.682 6.82758 21241 8897
H 3180.68 125.166 5.4203 21242 8897
C 3181 122.433 5.64905 21243 8897
H 3182.39 123.292 7.13569 21244 8897
H 3180.69 123.494 7.5496 21245 8897
H 3181.5 122.554 4.69584 21246 8897
H 3181.12 121.417 6.0316 21247 8897
H 3179.89 122.399 5.46261 21248 8897
C 3057.01 7.10469 47.0654 21249 8898
C 3058.22 6.19206 46.6776 21250 8898
H 3056.41 6.89925 47.9717 21251 8898
H 3057.3 8.166650000000001 47.2255 21252 8898
H 3056.27 7.11587 46.186 21253 8898
C 3059.17 5.90308 47.8882 21254 8898
H 3057.93 5.25158 46.1738 21255 8898
H 3058.75 6.64384 45.8456 21256 8898
C 3058.66 4.78876 48.8104 21257 8898
H 3060.17 5.69259 47.5175 21258 8898
H 3059.29 6.79535 48.4538 21259 8898
C 3059.58 4.83695 50.0999 21260 8898
H 3057.62 5.009 49.094 21261 8898
H 3058.65 3.79969 48.331 21262 8898
C 3059.2 3.61714 50.989 21263 8898
H 3060.61 4.72762 49.7253 21264 8898
H 3059.56 5.76762 50.6447 21265 8898
C 3059.97 3.59309 52.3391 21266 8898
H 3058.11 3.68863 51.2391 21267 8898
H 3059.34 2.66854 50.4457 21268 8898
C 3061.39 2.96236 52.2249 21269 8898
H 3059.92 4.63986 52.8357 21270 8898
H 3059.38 2.97582 53.0765 21271 8898
C 3061.93 2.99689 53.6786 21272 8898
H 3061.2 1.9302 51.8366 21273 8898
H 3061.96 3.54296 51.4784 21274 8898
C 3063.12 1.94636 53.8427 21275 8898
H 3062.24 4.05098 53.9128 21276 8898
H 3061.11 2.86667 54.4023 21277 8898
C 3064.31 2.18902 52.9424 21278 8898
H 3063.51 1.95533 54.8705 21279 8898
H 3062.74 0.916779 53.6888 21280 8898
C 3065.22 0.908412 52.8401 21281 8898
H 3063.96 2.52088 51.9361 21282 8898
H 3064.84 3.08419 53.2492 21283 8898
H 3065.61 0.599512 53.7769 21284 8898
H 3064.72 0.0523436 52.4223 21285 8898
H 3066.14 1.17606 52.3252 21286 8898
C 3176.72 129.753 105.662 21287 8899
C 3177.6 130.884 106.302 21288 8899
H 3176.66 129.838 104.576 21289 8899
H 3177.11 128.733 105.918 21290 8899
H 3175.69 129.827 106.011 21291 8899
C 3179 130.956 105.646 21292 8899
H 3177.07 131.841 106.322 21293 8899
H 3177.7 130.79 107.422 21294 8899
C 3179.92 131.979 106.318 21295 8899
H 3179.51 129.991 105.651 21296 8899
H 3178.85 131.203 104.563 21297 8899
C 3180.26 131.774 107.838 21298 8899
H 3180.86 132.061 105.717 21299 8899
H 3179.38 132.93 106.269 21300 8899
C 3181.14 130.531 108.187 21301 8899
H 3180.67 132.71 108.262 21302 8899
H 3179.33 131.594 108.424 21303 8899
C 3181.2 130.274 109.698 21304 8899
H 3180.75 129.643 107.659 21305 8899
H 3182.17 130.692 107.777 21306 8899
C 3181.46 128.767 109.992 21307 8899
H 3181.91 130.98 110.189 21308 8899
H 3180.21 130.515 110.217 21309 8899
C 3181.57 128.539 111.569 21310 8899
H 3180.8 128.031 109.524 21311 8899
H 3182.43 128.465 109.567 21312 8899
C 3181.98 127.083 111.811 21313 8899
H 3182.32 129.235 111.873 21314 8899
H 3180.61 128.806 112.062 21315 8899
C 3182.14 126.839 113.302 21316 8899
H 3181.25 126.426 111.359 21317 8899
H 3182.92 126.916 111.282 21318 8899
C 3183 128.038 113.976 21319 8899
H 3181.13 126.844 113.737 21320 8899
H 3182.55 125.838 113.561 21321 8899
H 3183.1 127.976 115.059 21322 8899
H 3184.08 128.012 113.647 21323 8899
H 3182.62 129.03 113.851 21324 8899
C 3138.63 85.5111 84.3192 21325 8900
C 3139.48 84.7873 83.19289999999999 21326 8900
H 3138.95 85.26220000000001 85.3412 21327 8900
H 3138.62 86.69110000000001 84.2359 21328 8900
H 3137.61 85.1855 84.31270000000001 21329 8900
C 3139.23 83.2611 83.2313 21330 8900
H 3139.32 85.1211 82.15689999999999 21331 8900
H 3140.55 84.9747 83.4088 21332 8900
C 3140.17 82.5217 82.29859999999999 21333 8900
H 3139.34 82.8892 84.23779999999999 21334 8900
H 3138.17 83.07470000000001 82.998 21335 8900
C 3141.66 82.5335 82.7749 21336 8900
H 3139.78 81.5097 82.2182 21337 8900
H 3140.01 82.8737 81.2722 21338 8900
C 3142.49 81.6433 81.7717 21339 8900
H 3142.1 83.5363 82.88800000000001 21340 8900
H 3141.69 82.1751 83.80629999999999 21341 8900
C 3143.88 81.4151 82.3028 21342 8900
H 3142.02 80.6499 81.7594 21343 8900
H 3142.51 81.9057 80.6626 21344 8900
C 3144.79 82.7046 82.3342 21345 8900
H 3143.87 80.9659 83.3552 21346 8900
H 3144.38 80.58969999999999 81.8608 21347 8900
C 3145.15 83.26649999999999 80.9478 21348 8900
H 3144.23 83.4717 82.8887 21349 8900
H 3145.71 82.5321 82.9391 21350 8900
C 3146.37 84.2565 81.0487 21351 8900
H 3145.56 82.3809 80.3575 21352 8900
H 3144.26 83.68129999999999 80.4571 21353 8900
C 3146.31 85.4041 82.2046 21354 8900
H 3147.32 83.7428 81.17 21355 8900
H 3146.41 84.7521 80.0587 21356 8900
C 3146.93 84.9365 83.53919999999999 21357 8900
H 3146.79 86.3278 81.8488 21358 8900
H 3145.32 85.77500000000001 82.2788 21359 8900
H 3146.87 85.7146 84.2959 21360 8900
H 3146.51 84.0234 83.9794 21361 8900
H 3148.02 84.76000000000001 83.38290000000001 21362 8900
C 3038.69 91.1707 40.9009 21363 8901
C 3037.48 90.2487 40.5064 21364 8901
H 3039.09 91.68300000000001 40.0039 21365 8901
H 3038.44 91.8708 41.6961 21366 8901
H 3039.52 90.63039999999999 41.301 21367 8901
C 3036.25 90.96729999999999 39.8417 21368 8901
H 3037.82 89.4222 39.894 21369 8901
H 3037.18 89.6836 41.4402 21370 8901
C 3034.93 90.2838 40.1792 21371 8901
H 3036.17 91.97629999999999 40.2031 21372 8901
H 3036.39 91.1305 38.7425 21373 8901
C 3033.71 91.2731 39.8138 21374 8901
H 3034.86 89.3317 39.6556 21375 8901
H 3034.91 89.97110000000001 41.2448 21376 8901
C 3032.66 91.05549999999999 40.8696 21377 8901
H 3034.03 92.2878 39.6535 21378 8901
H 3033.37 90.9902 38.7499 21379 8901
C 3031.4 91.93989999999999 40.5581 21380 8901
H 3032.3 90.0385 40.9191 21381 8901
H 3032.99 91.2794 41.8956 21382 8901
C 3031.61 93.48820000000001 40.6486 21383 8901
H 3031.07 91.65819999999999 39.5345 21384 8901
H 3030.55 91.658 41.2233 21385 8901
C 3031.85 94.05800000000001 42.0533 21386 8901
H 3032.41 93.78449999999999 39.9693 21387 8901
H 3030.67 93.9984 40.226 21388 8901
C 3030.5 93.9845 42.871 21389 8901
H 3032.67 93.5035 42.5366 21390 8901
H 3032.3 95.0805 41.9759 21391 8901
C 3030.51 94.83839999999999 44.1582 21392 8901
H 3029.68 94.2813 42.2293 21393 8901
H 3030.27 92.9083 43.0679 21394 8901
C 3031.8 94.6307 44.9832 21395 8901
H 3030.38 95.93470000000001 43.849 21396 8901
H 3029.65 94.6074 44.8264 21397 8901
H 3032.72 94.9508 44.5044 21398 8901
H 3031.75 95.19499999999999 45.9444 21399 8901
H 3031.91 93.5528 45.2479 21400 8901
